*SPEF "ieee 1481-1999"
*DESIGN "DigitalSine"
*DATE "21:40:33 Saturday March 28, 2026"
*VENDOR "The OpenROAD Project"
*PROGRAM "OpenROAD"
*VERSION "dcf36133a369abc8f3c5e5738cd4d82e4903c0e0"
*DESIGN_FLOW "NAME_SCOPE LOCAL" "PIN_CAP NONE"
*DIVIDER /
*DELIMITER :
*BUS_DELIMITER []
*T_UNIT 1 NS
*C_UNIT 1 PF
*R_UNIT 1 OHM
*L_UNIT 1 HENRY

*NAME_MAP
*3 clk
*4 rst
*5 sign
*6 signB
*7 sine_out[0]
*8 sine_out[10]
*9 sine_out[11]
*10 sine_out[12]
*11 sine_out[13]
*12 sine_out[14]
*13 sine_out[15]
*14 sine_out[16]
*15 sine_out[17]
*16 sine_out[1]
*17 sine_out[2]
*18 sine_out[3]
*19 sine_out[4]
*20 sine_out[5]
*21 sine_out[6]
*22 sine_out[7]
*23 sine_out[8]
*24 sine_out[9]
*25 CTRL\.P0
*26 CTRL\.P1
*27 CTRL\.S0
*28 DPATH\.SUM\.Cout0
*29 DPATH\.SUM\.fa_1\.A
*30 DPATH\.SUM\.fa_1\.S
*31 DPATH\.SUM\.fa_2\.A
*32 DPATH\.SUM\.fa_2\.S
*33 DPATH\.SUM\.fa_3\.A
*34 DPATH\.SUM\.fa_3\.S
*35 DPATH\.SUM\.fa_4\.A
*36 DPATH\.SUM\.fa_4\.S
*37 DPATH\.SUM\.fa_5\.A
*38 DPATH\.SUM\.fa_5\.S
*39 DPATH\.SUM\.fa_6\.A
*40 DPATH\.SUM\.fa_6\.S
*41 DPATH\.SUM\.ha_0\.S
*42 _000_
*43 _001_
*44 _002_
*45 _003_
*46 _004_
*47 _005_
*48 _006_
*49 _007_
*50 _008_
*51 _009_
*52 _010_
*53 _011_
*54 _012_
*55 _013_
*56 _014_
*57 _015_
*58 _016_
*59 _017_
*60 _018_
*61 _019_
*62 _020_
*63 _021_
*64 _022_
*65 _023_
*66 _024_
*67 _025_
*68 _026_
*69 _027_
*70 _028_
*71 _029_
*72 _030_
*73 _031_
*74 _032_
*75 _033_
*76 _034_
*77 _035_
*78 _036_
*79 _037_
*80 _038_
*81 _039_
*82 _040_
*83 _041_
*84 _042_
*85 _043_
*86 _044_
*87 _045_
*88 _046_
*89 _047_
*90 _048_
*91 _049_
*92 _050_
*93 _051_
*94 _052_
*95 _053_
*96 _054_
*97 _055_
*98 _056_
*99 _057_
*100 _058_
*101 _059_
*102 _060_
*103 _061_
*104 _062_
*105 _063_
*106 _064_
*107 _065_
*108 _066_
*109 _067_
*110 _068_
*111 _069_
*112 _070_
*113 _071_
*114 _072_
*115 _073_
*116 _074_
*117 _075_
*118 _076_
*119 _077_
*120 _078_
*121 _079_
*122 _080_
*123 _081_
*124 _082_
*125 _083_
*126 _084_
*127 _085_
*128 _086_
*129 _087_
*130 _088_
*131 _089_
*132 _090_
*133 _091_
*134 _092_
*135 _093_
*136 _094_
*137 _095_
*138 _096_
*139 _097_
*140 _098_
*141 _099_
*142 _100_
*143 _101_
*144 _102_
*145 _103_
*146 _104_
*147 _105_
*148 _106_
*149 _107_
*150 _108_
*151 _109_
*152 _110_
*153 _111_
*154 _112_
*155 _113_
*156 _114_
*157 _115_
*158 _116_
*159 _117_
*160 _118_
*161 _119_
*162 _120_
*163 _121_
*164 _122_
*165 _123_
*166 _124_
*167 _125_
*168 _126_
*169 _127_
*170 _128_
*171 _129_
*172 _130_
*173 _131_
*174 _132_
*175 _133_
*176 _134_
*177 _135_
*178 _136_
*179 _137_
*180 clknet_0_clk
*181 clknet_1_0__leaf_clk
*182 clknet_1_1__leaf_clk
*183 net1
*184 net10
*185 net11
*186 net12
*187 net13
*188 net14
*189 net15
*190 net16
*191 net17
*192 net18
*193 net19
*194 net2
*195 net20
*196 net21
*197 net22
*198 net23
*199 net24
*200 net25
*201 net26
*202 net27
*203 net28
*204 net29
*205 net3
*206 net30
*207 net31
*208 net32
*209 net33
*210 net34
*211 net35
*212 net36
*213 net37
*214 net38
*215 net39
*216 net4
*217 net40
*218 net41
*219 net42
*220 net43
*221 net5
*222 net6
*223 net7
*224 net8
*225 net9
*226 FILLER_0_0
*227 FILLER_0_20
*228 FILLER_0_4
*229 FILLER_0_42
*230 FILLER_0_46
*231 FILLER_0_51
*232 FILLER_0_57
*233 FILLER_0_64
*234 FILLER_0_71
*235 FILLER_0_75
*236 FILLER_0_86
*237 FILLER_0_88
*238 FILLER_0_92
*239 FILLER_10_0
*240 FILLER_10_111
*241 FILLER_10_115
*242 FILLER_10_17
*243 FILLER_10_24
*244 FILLER_10_31
*245 FILLER_10_74
*246 FILLER_10_78
*247 FILLER_10_82
*248 FILLER_10_89
*249 FILLER_10_96
*250 FILLER_11_0
*251 FILLER_11_112
*252 FILLER_11_12
*253 FILLER_11_16
*254 FILLER_11_20
*255 FILLER_11_27
*256 FILLER_11_52
*257 FILLER_11_59
*258 FILLER_11_61
*259 FILLER_11_7
*260 FILLER_11_82
*261 FILLER_11_89
*262 FILLER_11_96
*263 FILLER_12_103
*264 FILLER_12_45
*265 FILLER_12_66
*266 FILLER_12_68
*267 FILLER_12_88
*268 FILLER_12_97
*269 FILLER_13_0
*270 FILLER_13_113
*271 FILLER_13_115
*272 FILLER_13_33
*273 FILLER_13_35
*274 FILLER_13_4
*275 FILLER_13_55
*276 FILLER_13_62
*277 FILLER_13_64
*278 FILLER_13_78
*279 FILLER_13_84
*280 FILLER_13_91
*281 FILLER_14_0
*282 FILLER_14_110
*283 FILLER_14_32
*284 FILLER_14_4
*285 FILLER_14_49
*286 FILLER_14_56
*287 FILLER_14_63
*288 FILLER_14_70
*289 FILLER_14_77
*290 FILLER_14_84
*291 FILLER_14_91
*292 FILLER_1_0
*293 FILLER_1_107
*294 FILLER_1_118
*295 FILLER_1_74
*296 FILLER_2_0
*297 FILLER_2_107
*298 FILLER_2_24
*299 FILLER_2_26
*300 FILLER_2_38
*301 FILLER_2_45
*302 FILLER_2_47
*303 FILLER_2_89
*304 FILLER_3_0
*305 FILLER_3_117
*306 FILLER_3_119
*307 FILLER_3_2
*308 FILLER_3_21
*309 FILLER_3_28
*310 FILLER_3_35
*311 FILLER_3_37
*312 FILLER_3_46
*313 FILLER_4_105
*314 FILLER_4_111
*315 FILLER_4_59
*316 FILLER_4_79
*317 FILLER_4_86
*318 FILLER_4_93
*319 FILLER_5_0
*320 FILLER_5_101
*321 FILLER_5_115
*322 FILLER_5_20
*323 FILLER_5_27
*324 FILLER_5_31
*325 FILLER_5_38
*326 FILLER_5_4
*327 FILLER_5_49
*328 FILLER_5_83
*329 FILLER_5_87
*330 FILLER_6_0
*331 FILLER_6_104
*332 FILLER_6_111
*333 FILLER_6_115
*334 FILLER_6_33
*335 FILLER_6_45
*336 FILLER_6_75
*337 FILLER_6_80
*338 FILLER_6_87
*339 FILLER_7_0
*340 FILLER_7_100
*341 FILLER_7_107
*342 FILLER_7_114
*343 FILLER_7_19
*344 FILLER_7_26
*345 FILLER_7_33
*346 FILLER_7_44
*347 FILLER_7_51
*348 FILLER_7_53
*349 FILLER_7_87
*350 FILLER_7_94
*351 FILLER_8_0
*352 FILLER_8_114
*353 FILLER_8_18
*354 FILLER_8_25
*355 FILLER_8_29
*356 FILLER_8_4
*357 FILLER_8_50
*358 FILLER_8_52
*359 FILLER_8_57
*360 FILLER_8_76
*361 FILLER_8_80
*362 FILLER_8_89
*363 FILLER_9_0
*364 FILLER_9_104
*365 FILLER_9_111
*366 FILLER_9_115
*367 FILLER_9_2
*368 FILLER_9_28
*369 FILLER_9_49
*370 FILLER_9_69
*371 FILLER_9_91
*372 FILLER_9_93
*373 FILLER_9_98
*374 _138_
*375 _139_
*376 _140_
*377 _141_
*378 _142_
*379 _143_
*380 _144_
*381 _145_
*382 _146_
*383 _147_
*384 _148_
*385 _149_
*386 _150_
*387 _151_
*388 _152_
*389 _153_
*390 _154_
*391 _155_
*392 _156_
*393 _157_
*394 _158_
*395 _159_
*396 _160_
*397 _161_
*398 _162_
*399 _163_
*400 _164_
*401 _165_
*402 _166_
*403 _167_
*404 _168_
*405 _169_
*406 _170_
*407 _171_
*408 _172_
*409 _173_
*410 _174_
*411 _175_
*412 _176_
*413 _177_
*414 _178_
*415 _179_
*416 _180_
*417 _181_
*418 _182_
*419 _183_
*420 _184_
*421 _185_
*422 _186_
*423 _187_
*424 _188_
*425 _189_
*426 _190_
*427 _191_
*428 _192_
*429 _193_
*430 _194_
*431 _195_
*432 _196_
*433 _197_
*434 _198_
*435 _199_
*436 _200_
*437 _201_
*438 _202_
*439 _203_
*440 _204_
*441 _205_
*442 _206_
*443 _207_
*444 _208_
*445 _209_
*446 _210_
*447 _211_
*448 _212_
*449 _213_
*450 _214_
*451 _215_
*452 _216_
*453 _217_
*454 _218_
*455 _219_
*456 _220_
*457 _221_
*458 _222_
*459 _223_
*460 _224_
*461 _225_
*462 _226_
*463 _227_
*464 _228_
*465 _229_
*466 _230_
*467 _231_
*468 _232_
*469 _233_
*470 _234_
*471 _235_
*472 _236_
*473 _237_
*474 _238_
*475 _239_
*476 _240_
*477 _241_
*478 _242_
*479 _243_
*480 _244_
*481 _245_
*482 _246_
*483 _247_
*484 _248_
*485 _249_
*486 _250_
*487 _251_
*488 _252_
*489 _253_
*490 _254_
*491 _255_
*492 _256_
*493 _257_
*494 _258_
*495 _259_
*496 _260_
*497 _261_
*498 _262_
*499 _263_
*500 _264_
*501 _265_
*502 _266_
*503 _267_
*504 _268_
*505 _269_
*506 _270_
*507 _271_
*508 _272_
*509 _273_
*510 _274_
*511 _275_
*512 _276_
*513 _277_
*514 _278_
*515 _279_
*516 _280_
*517 _281_
*518 _282_
*519 _283_
*520 _284_
*521 _285_
*522 _286_
*523 _287_
*524 _288_
*525 _289_
*526 _290_
*527 _291_
*528 _292_
*529 _293_
*530 _294_
*531 _295_
*532 _296_
*533 _297_
*534 _298_
*535 _299_
*536 _300_
*537 _301_
*538 _302_
*539 _303_
*540 _304_
*541 _305_
*542 _306_
*543 _307_
*544 _308_
*545 _309_
*546 _310_
*547 _311_
*548 _312_
*549 clkbuf_0_clk
*550 clkbuf_1_0__f_clk
*551 clkbuf_1_1__f_clk
*552 clkload0
*553 fanout22
*554 fanout23
*555 fanout24
*556 fanout25
*557 fanout26
*558 fanout27
*559 fanout28
*560 fanout29
*561 fanout30
*562 fanout31
*563 fanout32
*564 fanout33
*565 fanout34
*566 fanout35
*567 fanout36
*568 fanout37
*569 fanout38
*570 fanout39
*571 fanout40
*572 fanout41
*573 fanout42
*574 hold43
*575 input1
*576 output10
*577 output11
*578 output12
*579 output13
*580 output14
*581 output15
*582 output16
*583 output17
*584 output18
*585 output19
*586 output2
*587 output20
*588 output21
*589 output3
*590 output4
*591 output5
*592 output6
*593 output7
*594 output8
*595 output9

*PORTS
clk I
rst I
sign O
signB O
sine_out[0] O
sine_out[10] O
sine_out[11] O
sine_out[12] O
sine_out[13] O
sine_out[14] O
sine_out[15] O
sine_out[16] O
sine_out[17] O
sine_out[1] O
sine_out[2] O
sine_out[3] O
sine_out[4] O
sine_out[5] O
sine_out[6] O
sine_out[7] O
sine_out[8] O
sine_out[9] O

*D_NET *3 0.00469125
*CONN
*P clk I
*I *549:A I *D sg13g2_buf_16
*CAP
1 clk 0.000821077
2 *549:A 9.84456e-05
3 *3:20 0.000641303
4 *3:18 0.0014261
5 *3:12 0.00170432
6 *549:A *442:A2 0
7 *549:A *473:B 0
8 *3:12 *188:12 0
9 *3:12 *219:41 0
10 *3:18 *39:27 0
11 *3:20 *442:A2 0
12 *3:20 *473:B 0
13 *3:20 *473:C 0
14 *3:20 *579:A 0
*RES
1 clk *3:12 49.8777 
2 *3:12 *3:18 49.6202 
3 *3:18 *3:20 3.7528 
4 *3:20 *549:A 20.9682 
*END

*D_NET *4 0.00239843
*CONN
*P rst I
*I *575:A I *D sg13g2_buf_1
*CAP
1 rst 0.000736456
2 *575:A 0.000462757
3 *4:11 0.00119921
4 *575:A *436:A 0
*RES
1 rst *4:11 48.3018 
2 *4:11 *575:A 25.2736 
*END

*D_NET *5 0.00235569
*CONN
*P sign O
*I *586:X O *D sg13g2_buf_1
*CAP
1 sign 0.000340536
2 *586:X 0.000732376
3 *5:8 0.00107291
4 sign signB 0
5 sign sine_out[0] 0
6 *5:8 sine_out[0] 0
7 *5:8 *586:A 0.000209871
8 *5:8 *6:6 0
9 *5:8 *194:8 0
*RES
1 *586:X *5:8 48.1061 
2 *5:8 sign 4.18437 
*END

*D_NET *6 0.00281714
*CONN
*P signB O
*I *589:X O *D sg13g2_buf_1
*CAP
1 signB 0.0003976
2 *589:X 0.000922249
3 *6:6 0.00131985
4 *6:6 sine_out[2] 0
5 *6:6 *220:10 0.000177442
6 sign signB 0
7 *5:8 *6:6 0
*RES
1 *589:X *6:6 30.2691 
2 *6:6 signB 25.1732 
*END

*D_NET *7 0.00186825
*CONN
*P sine_out[0] O
*I *590:X O *D sg13g2_buf_1
*CAP
1 sine_out[0] 0.000813061
2 *590:X 0.000813061
3 sine_out[0] sine_out[2] 0
4 sine_out[0] *586:A 0
5 sine_out[0] *194:8 0.000242125
6 sign sine_out[0] 0
7 *5:8 sine_out[0] 0
*RES
1 *590:X sine_out[0] 49.2417 
*END

*D_NET *8 0.000583826
*CONN
*P sine_out[10] O
*I *591:X O *D sg13g2_buf_1
*CAP
1 sine_out[10] 0.000291913
2 *591:X 0.000291913
3 sine_out[10] sine_out[12] 0
4 sine_out[10] sine_out[14] 0
5 sine_out[10] *35:33 0
*RES
1 *591:X sine_out[10] 43.5149 
*END

*D_NET *9 0.00209191
*CONN
*P sine_out[11] O
*I *592:X O *D sg13g2_buf_1
*CAP
1 sine_out[11] 0.00065112
2 *592:X 0.000394837
3 *9:8 0.00104596
4 sine_out[11] sine_out[7] 0
5 sine_out[11] sine_out[9] 0
6 *9:8 sine_out[7] 0
7 *9:8 *24:8 0
*RES
1 *592:X *9:8 44.429 
2 *9:8 sine_out[11] 7.89237 
*END

*D_NET *10 0.000795048
*CONN
*P sine_out[12] O
*I *593:X O *D sg13g2_buf_1
*CAP
1 sine_out[12] 0.000397524
2 *593:X 0.000397524
3 sine_out[12] sine_out[8] 0
4 sine_out[12] *200:72 0
5 sine_out[10] sine_out[12] 0
*RES
1 *593:X sine_out[12] 44.6994 
*END

*D_NET *11 0.000669082
*CONN
*P sine_out[13] O
*I *594:X O *D sg13g2_buf_1
*CAP
1 sine_out[13] 0.000334541
2 *594:X 0.000334541
3 sine_out[13] sine_out[7] 0
4 sine_out[13] sine_out[8] 0
*RES
1 *594:X sine_out[13] 44.1844 
*END

*D_NET *12 0.00060011
*CONN
*P sine_out[14] O
*I *595:X O *D sg13g2_buf_1
*CAP
1 sine_out[14] 0.000300055
2 *595:X 0.000300055
3 sine_out[14] sine_out[5] 0
4 sine_out[14] *35:33 0
5 sine_out[10] sine_out[14] 0
*RES
1 *595:X sine_out[14] 43.5149 
*END

*D_NET *13 0.000886079
*CONN
*P sine_out[15] O
*I *576:X O *D sg13g2_buf_1
*CAP
1 sine_out[15] 0.000443039
2 *576:X 0.000443039
3 sine_out[15] sine_out[4] 0
4 sine_out[15] sine_out[6] 0
5 sine_out[15] *590:A 0
6 sine_out[15] *201:94 0
*RES
1 *576:X sine_out[15] 44.3801 
*END

*D_NET *14 0.000607175
*CONN
*P sine_out[16] O
*I *577:X O *D sg13g2_buf_1
*CAP
1 sine_out[16] 0.000303587
2 *577:X 0.000303587
3 sine_out[16] sine_out[17] 0
4 sine_out[16] sine_out[5] 0
*RES
1 *577:X sine_out[16] 43.5149 
*END

*D_NET *15 0.000800924
*CONN
*P sine_out[17] O
*I *578:X O *D sg13g2_buf_1
*CAP
1 sine_out[17] 0.000320646
2 *578:X 0.000320646
3 sine_out[17] sine_out[3] 0
4 sine_out[17] *576:A 8.0185e-05
5 sine_out[17] *150:23 7.94462e-05
6 sine_out[16] sine_out[17] 0
*RES
1 *578:X sine_out[17] 43.7312 
*END

*D_NET *16 0.00271523
*CONN
*P sine_out[1] O
*I *579:X O *D sg13g2_buf_1
*CAP
1 sine_out[1] 0.000709049
2 *579:X 0.000197626
3 *16:10 0.000906676
4 sine_out[1] sine_out[2] 0
5 sine_out[1] sine_out[4] 0
6 sine_out[1] *547:CLK 0.000660971
7 sine_out[1] *589:A 0
8 sine_out[1] *49:8 0
9 *16:10 *443:A 0
10 *16:10 *170:14 0
11 *16:10 *188:12 0.000240904
12 *16:10 *197:41 0
*RES
1 *579:X *16:10 41.9673 
2 *16:10 sine_out[1] 9.12838 
*END

*D_NET *17 0.00302448
*CONN
*P sine_out[2] O
*I *580:X O *D sg13g2_buf_1
*CAP
1 sine_out[2] 0.000748478
2 *580:X 0.000343257
3 *17:10 0.00109173
4 sine_out[2] *547:D 0
5 sine_out[2] *547:CLK 0.000339468
6 *17:10 *547:D 0
7 *17:10 *547:CLK 0.000501546
8 *17:10 *589:A 0
9 *17:10 *60:22 0
10 *17:10 *188:12 0
11 *17:10 *205:10 0
12 sine_out[0] sine_out[2] 0
13 sine_out[1] sine_out[2] 0
14 *6:6 sine_out[2] 0
*RES
1 *580:X *17:10 43.7595 
2 *17:10 sine_out[2] 48.6134 
*END

*D_NET *18 0.000924358
*CONN
*P sine_out[3] O
*I *581:X O *D sg13g2_buf_1
*CAP
1 sine_out[3] 0.000350001
2 *581:X 0.000350001
3 sine_out[3] sine_out[6] 0
4 sine_out[3] *576:A 0.000112528
5 sine_out[3] *150:23 0.000111828
6 sine_out[17] sine_out[3] 0
*RES
1 *581:X sine_out[3] 43.9475 
*END

*D_NET *19 0.00198289
*CONN
*P sine_out[4] O
*I *582:X O *D sg13g2_buf_1
*CAP
1 sine_out[4] 0.000691889
2 *582:X 0.000691889
3 sine_out[4] *380:B 0.000143952
4 sine_out[4] *590:A 0.000455155
5 sine_out[4] *201:94 0
6 sine_out[4] *202:56 0
7 sine_out[15] sine_out[4] 0
8 sine_out[1] sine_out[4] 0
*RES
1 *582:X sine_out[4] 47.7379 
*END

*D_NET *20 0.000551616
*CONN
*P sine_out[5] O
*I *583:X O *D sg13g2_buf_1
*CAP
1 sine_out[5] 0.000275808
2 *583:X 0.000275808
3 sine_out[14] sine_out[5] 0
4 sine_out[16] sine_out[5] 0
*RES
1 *583:X sine_out[5] 43.1956 
*END

*D_NET *21 0.000913064
*CONN
*P sine_out[6] O
*I *584:X O *D sg13g2_buf_1
*CAP
1 sine_out[6] 0.000384804
2 *584:X 0.000384804
3 sine_out[6] *576:A 0.000143456
4 sine_out[6] *201:94 0
5 sine_out[15] sine_out[6] 0
6 sine_out[3] sine_out[6] 0
*RES
1 *584:X sine_out[6] 44.1638 
*END

*D_NET *22 0.00149556
*CONN
*P sine_out[7] O
*I *585:X O *D sg13g2_buf_1
*CAP
1 sine_out[7] 0.000747779
2 *585:X 0.000747779
3 sine_out[11] sine_out[7] 0
4 sine_out[13] sine_out[7] 0
5 *9:8 sine_out[7] 0
*RES
1 *585:X sine_out[7] 49.1696 
*END

*D_NET *23 0.000757797
*CONN
*P sine_out[8] O
*I *587:X O *D sg13g2_buf_1
*CAP
1 sine_out[8] 0.000378898
2 *587:X 0.000378898
3 sine_out[8] *587:A 0
4 sine_out[12] sine_out[8] 0
5 sine_out[13] sine_out[8] 0
*RES
1 *587:X sine_out[8] 44.3801 
*END

*D_NET *24 0.00256281
*CONN
*P sine_out[9] O
*I *588:X O *D sg13g2_buf_1
*CAP
1 sine_out[9] 0.000715305
2 *588:X 0.000566101
3 *24:8 0.00128141
4 sine_out[11] sine_out[9] 0
5 *9:8 *24:8 0
*RES
1 *588:X *24:8 46.592 
2 *24:8 sine_out[9] 8.88118 
*END

*D_NET *25 0.000414506
*CONN
*I *548:D I *D sg13g2_dfrbpq_1
*I *443:Y O *D sg13g2_nor2_1
*CAP
1 *548:D 0.000207253
2 *443:Y 0.000207253
3 *548:D *442:A2 0
4 *548:D *548:RESET_B 0
5 *548:D *62:10 0
6 *548:D *83:18 0
*RES
1 *443:Y *548:D 42.2145 
*END

*D_NET *26 0.00130091
*CONN
*I *547:D I *D sg13g2_dfrbpq_1
*I *440:Y O *D sg13g2_xnor2_1
*CAP
1 *547:D 0.000650455
2 *440:Y 0.000650455
3 *547:D *547:CLK 0
4 *547:D *27:10 0
5 *547:D *60:22 0
6 *547:D *188:12 0
7 sine_out[2] *547:D 0
8 *17:10 *547:D 0
*RES
1 *440:Y *547:D 45.7801 
*END

*D_NET *27 0.00202138
*CONN
*I *555:A I *D sg13g2_buf_1
*I *548:Q O *D sg13g2_dfrbpq_1
*CAP
1 *555:A 0
2 *548:Q 0.000672216
3 *27:10 0.000672216
4 *27:10 *547:CLK 4.77425e-05
5 *27:10 *589:A 0.000181192
6 *27:10 *60:22 0
7 *27:10 *170:14 0
8 *27:10 *205:10 0.000448012
9 *27:10 *220:10 0
10 *547:D *27:10 0
*RES
1 *548:Q *27:10 46.0794 
2 *27:10 *555:A 40 
*END

*D_NET *28 0.000134587
*CONN
*I *572:A I *D sg13g2_buf_1
*I *540:Q O *D sg13g2_dfrbpq_1
*CAP
1 *572:A 6.72937e-05
2 *540:Q 6.72937e-05
*RES
1 *540:Q *572:A 40.8446 
*END

*D_NET *29 0.0107152
*CONN
*I *487:B I *D sg13g2_nand3_1
*I *471:A2 I *D sg13g2_a21oi_1
*I *569:A I *D sg13g2_buf_1
*I *541:Q O *D sg13g2_dfrbpq_1
*CAP
1 *487:B 2.88561e-05
2 *471:A2 0
3 *569:A 5.73328e-05
4 *541:Q 0.000606718
5 *29:63 0.000992386
6 *29:49 0.00179282
7 *29:37 0.00132467
8 *29:27 0.00172704
9 *29:12 0.001838
10 *487:B *488:A2 0
11 *29:12 *567:A 0
12 *29:12 *157:8 0
13 *29:12 *212:20 0.000242125
14 *29:12 *214:8 0.000231558
15 *29:12 *218:10 0
16 *29:27 *157:8 0
17 *29:27 *157:42 0
18 *29:27 *157:57 0
19 *29:27 *218:10 0
20 *29:27 *218:23 0
21 *29:37 *486:A 0
22 *29:37 *487:A 0.000112683
23 *29:37 *106:10 0
24 *29:37 *151:36 0
25 *29:37 *151:47 0
26 *29:37 *164:27 0
27 *29:37 *196:8 0
28 *29:37 *209:123 4.85985e-05
29 *29:37 *218:39 0
30 *29:49 *394:A 0
31 *29:49 *396:B 7.52036e-05
32 *29:49 *402:A 0.000660988
33 *29:49 *403:A1 0
34 *29:49 *404:A 0
35 *29:49 *411:B1 0
36 *29:49 *588:A 0
37 *29:49 *41:75 0.000143571
38 *29:49 *157:57 0
39 *29:49 *159:10 2.18151e-05
40 *29:49 *165:37 0
41 *29:49 *167:31 0
42 *29:49 *218:39 0
43 *29:63 *385:B 0
44 *29:63 *410:B 0.0001122
45 *29:63 *411:B1 0
46 *29:63 *470:A 0.000176365
47 *29:63 *470:B 1.51749e-05
48 *29:63 *472:A2 0
49 *29:63 *483:B2 0
50 *29:63 *87:12 7.52158e-05
51 *29:63 *92:10 4.75425e-05
52 *29:63 *159:10 4.75334e-05
53 *29:63 *167:31 0
54 *29:63 *168:8 0
55 *29:63 *206:80 4.77699e-05
56 *29:63 *209:75 3.23694e-05
57 *29:63 *209:85 1.54008e-05
58 *29:63 *216:10 0.000241282
59 *29:63 *218:47 0
*RES
1 *541:Q *29:12 46.3036 
2 *29:12 *569:A 40.5356 
3 *29:12 *29:27 30.8665 
4 *29:27 *29:37 45.1294 
5 *29:37 *29:49 48.0443 
6 *29:49 *29:63 49.5687 
7 *29:63 *471:A2 20 
8 *29:27 *487:B 20.3502 
*END

*D_NET *30 0.000821555
*CONN
*I *541:D I *D sg13g2_dfrbpq_1
*I *418:Y O *D sg13g2_xnor2_1
*CAP
1 *541:D 0.000410777
2 *418:Y 0.000410777
3 *541:D *418:A 0
4 *541:D *541:RESET_B 0
5 *541:D *542:RESET_B 0
6 *541:D *542:D 0
7 *541:D *215:69 0
*RES
1 *418:Y *541:D 44.5114 
*END

*D_NET *31 0.00380098
*CONN
*I *511:A1 I *D sg13g2_o21ai_1
*I *461:A I *D sg13g2_xnor2_1
*I *399:A I *D sg13g2_nand2_1
*I *567:A I *D sg13g2_buf_1
*I *542:Q O *D sg13g2_dfrbpq_1
*CAP
1 *511:A1 0.000100237
2 *461:A 0
3 *399:A 0
4 *567:A 0.000327202
5 *542:Q 0.000131351
6 *31:45 0.000194981
7 *31:37 0.000684598
8 *31:27 0.000666505
9 *31:25 0.000394239
10 *31:8 0.000575667
11 *511:A1 *147:55 0
12 *567:A *212:6 0.000209729
13 *567:A *212:20 0
14 *567:A *215:12 4.77702e-05
15 *31:8 *212:20 0
16 *31:8 *214:20 0
17 *31:25 *212:20 0
18 *31:25 *215:8 0.000177127
19 *31:27 *72:16 0
20 *31:27 *215:12 0
21 *31:37 *215:24 0.00014555
22 *31:45 *453:A1 7.30101e-05
23 *31:45 *453:B1 0
24 *31:45 *147:10 7.30101e-05
25 *31:45 *213:18 0
26 *31:45 *215:36 0
27 *29:12 *567:A 0
*RES
1 *542:Q *31:8 41.339 
2 *31:8 *567:A 43.4702 
3 *31:8 *31:25 21.0918 
4 *31:25 *31:27 1.6171 
5 *31:27 *31:37 43.6462 
6 *31:37 *31:45 41.751 
7 *31:45 *399:A 20 
8 *31:27 *461:A 20 
9 *31:25 *511:A1 21.1021 
*END

*D_NET *32 0.00259373
*CONN
*I *542:D I *D sg13g2_dfrbpq_1
*I *422:X O *D sg13g2_xor2_1
*CAP
1 *542:D 0.00073981
2 *422:X 5.54831e-05
3 *32:8 0.000795293
4 *542:D *423:B1 0.000209756
5 *542:D *541:RESET_B 0
6 *542:D *542:RESET_B 0
7 *542:D *42:10 0
8 *542:D *219:87 0.000793382
9 *541:D *542:D 0
*RES
1 *422:X *32:8 40.5974 
2 *32:8 *542:D 48.549 
*END

*D_NET *33 0.00489671
*CONN
*I *566:A I *D sg13g2_buf_1
*I *565:A I *D sg13g2_buf_1
*I *543:Q O *D sg13g2_dfrbpq_1
*CAP
1 *566:A 0.00080573
2 *565:A 8.31384e-05
3 *543:Q 0.00037483
4 *33:10 0.0012637
5 *565:A *88:12 0
6 *565:A *212:43 1.54008e-05
7 *566:A *489:A 0.000232209
8 *566:A *520:A1 0.000602149
9 *566:A *85:8 0
10 *566:A *162:24 0
11 *566:A *197:93 1.54556e-05
12 *566:A *203:8 0
13 *566:A *203:23 0.000103961
14 *566:A *204:57 0.000391206
15 *566:A *204:74 0
16 *566:A *204:85 0.000231766
17 *566:A *208:99 0
18 *33:10 *126:18 0
19 *33:10 *162:14 0
20 *33:10 *183:33 0
21 *33:10 *210:10 0.000178758
22 *33:10 *210:16 0.000181325
23 *33:10 *212:43 0.000110299
24 *33:10 *213:33 0.000306781
*RES
1 *543:Q *33:10 44.3775 
2 *33:10 *565:A 40.7519 
3 *33:10 *566:A 48.4975 
*END

*D_NET *34 0.000920529
*CONN
*I *543:D I *D sg13g2_dfrbpq_1
*I *426:X O *D sg13g2_xor2_1
*CAP
1 *543:D 0.000274417
2 *426:X 0.000274417
3 *543:D *420:B 0
4 *543:D *421:B 0
5 *543:D *179:6 0
6 *543:D *219:87 0.000371695
*RES
1 *426:X *543:D 43.0797 
*END

*D_NET *35 0.0129546
*CONN
*I *531:A1 I *D sg13g2_a21oi_1
*I *530:A1 I *D sg13g2_a21oi_1
*I *563:A I *D sg13g2_buf_1
*I *544:Q O *D sg13g2_dfrbpq_1
*CAP
1 *531:A1 0.000291697
2 *530:A1 0
3 *563:A 0.000162343
4 *544:Q 0.00030293
5 *35:37 0.000417735
6 *35:33 0.0017538
7 *35:27 0.00363432
8 *35:12 0.00247183
9 *531:A1 *403:B1 0.000144726
10 *531:A1 *530:A2 1.54008e-05
11 *531:A1 *531:A2 0.000224927
12 *531:A1 *153:14 4.77702e-05
13 *531:A1 *156:55 1.54008e-05
14 *531:A1 *200:72 0
15 *563:A *39:23 0
16 *563:A *208:8 0
17 *563:A *208:72 7.90513e-05
18 *35:12 *208:29 0
19 *35:12 *213:49 0.000548136
20 *35:12 *219:71 0
21 *35:27 *39:23 0.00165838
22 *35:27 *144:39 0
23 *35:27 *144:52 0
24 *35:27 *171:22 0.000126859
25 *35:27 *201:94 0
26 *35:27 *204:44 0
27 *35:27 *207:23 0
28 *35:27 *208:61 0
29 *35:27 *213:49 0
30 *35:33 *531:B1 0
31 *35:33 *150:23 0
32 *35:33 *150:31 0.000446901
33 *35:33 *156:36 0
34 *35:33 *156:55 0
35 *35:33 *201:94 0.000499957
36 *35:37 *403:B1 0
37 *35:37 *530:A2 0.000112426
38 *35:37 *156:36 0
39 sine_out[10] *35:33 0
40 sine_out[14] *35:33 0
*RES
1 *544:Q *35:12 43.708 
2 *35:12 *563:A 41.5347 
3 *35:12 *35:27 38.8902 
4 *35:27 *35:33 36.7993 
5 *35:33 *35:37 21.1845 
6 *35:37 *530:A1 20 
7 *35:37 *531:A1 23.399 
*END

*D_NET *36 0.000133739
*CONN
*I *544:D I *D sg13g2_dfrbpq_1
*I *430:X O *D sg13g2_xor2_1
*CAP
1 *544:D 6.68694e-05
2 *430:X 6.68694e-05
3 *544:D *219:87 0
*RES
1 *430:X *544:D 40.8446 
*END

*D_NET *37 0.00075292
*CONN
*I *560:A I *D sg13g2_buf_1
*I *545:Q O *D sg13g2_dfrbpq_1
*CAP
1 *560:A 0.000280814
2 *545:Q 0.000280814
3 *560:A *437:A 0.000143379
4 *560:A *544:CLK 0
5 *560:A *183:14 0
6 *560:A *219:71 4.79124e-05
*RES
1 *545:Q *560:A 42.7775 
*END

*D_NET *38 0.00048689
*CONN
*I *545:D I *D sg13g2_dfrbpq_1
*I *434:X O *D sg13g2_xor2_1
*CAP
1 *545:D 0.000116697
2 *434:X 0.000126748
3 *38:8 0.000243445
4 *545:D *198:27 0
5 *38:8 *427:A 0
*RES
1 *434:X *38:8 41.5862 
2 *38:8 *545:D 41.1845 
*END

*D_NET *39 0.00948793
*CONN
*I *492:A I *D sg13g2_nor4_1
*I *556:A I *D sg13g2_buf_1
*I *557:A I *D sg13g2_buf_1
*I *546:Q O *D sg13g2_dfrbpq_1
*CAP
1 *492:A 0
2 *556:A 0
3 *557:A 0
4 *546:Q 7.68804e-05
5 *39:46 0.000754353
6 *39:33 3.306e-05
7 *39:27 0.00166455
8 *39:23 0.00158765
9 *39:12 0.000864296
10 *39:8 0.000230663
11 *39:8 *124:8 7.51285e-05
12 *39:8 *181:10 0
13 *39:8 *199:18 0.00023547
14 *39:12 *524:B1 0.000176279
15 *39:12 *201:8 0.000143379
16 *39:12 *208:20 0
17 *39:23 *524:B1 4.78853e-05
18 *39:23 *204:44 0.00134538
19 *39:23 *206:31 0
20 *39:23 *208:20 0
21 *39:27 *200:14 0
22 *39:33 *401:A 4.77702e-05
23 *39:33 *442:A2 0
24 *39:46 *401:A 0.000240799
25 *39:46 *458:A_N 4.77425e-05
26 *39:46 *482:A 0
27 *39:46 *488:B1 0
28 *39:46 *492:B 1.54008e-05
29 *39:46 *63:35 0
30 *39:46 *110:16 0
31 *39:46 *164:27 0
32 *39:46 *200:14 0
33 *39:46 *203:35 0
34 *39:46 *207:86 0.00024286
35 *563:A *39:23 0
36 *3:18 *39:27 0
37 *35:27 *39:23 0.00165838
*RES
1 *546:Q *39:8 41.0918 
2 *39:8 *39:12 21.6171 
3 *39:12 *557:A 20 
4 *39:12 *39:23 30.4648 
5 *39:23 *39:27 29.4039 
6 *39:27 *39:33 40.3193 
7 *39:33 *556:A 20 
8 *39:27 *39:46 47.5602 
9 *39:46 *492:A 20 
*END

*D_NET *40 0.00059254
*CONN
*I *546:D I *D sg13g2_dfrbpq_1
*I *437:Y O *D sg13g2_xnor2_1
*CAP
1 *546:D 0.00029627
2 *437:Y 0.00029627
3 *546:D *437:A 0
4 *546:D *437:B 0
5 *546:D *219:6 0
6 *546:D *219:18 0
*RES
1 *437:Y *546:D 42.9973 
*END

*D_NET *41 0.0119454
*CONN
*I *527:A I *D sg13g2_nor2_1
*I *411:A1 I *D sg13g2_o21ai_1
*I *396:A I *D sg13g2_nand2_1
*I *402:A I *D sg13g2_nor2_1
*I *419:A1 I *D sg13g2_o21ai_1
*I *540:D I *D sg13g2_dfrbpq_1
*I *377:Y O *D sg13g2_inv_1
*CAP
1 *527:A 0.000109784
2 *411:A1 4.97797e-05
3 *396:A 3.77418e-05
4 *402:A 0.000402578
5 *419:A1 0.000124973
6 *540:D 0
7 *377:Y 0
8 *41:75 0.000234282
9 *41:71 0.000332593
10 *41:60 0.00275177
11 *41:49 0.0027787
12 *41:32 0.000446103
13 *41:24 0.000854817
14 *41:6 0.000789299
15 *402:A *163:53 0
16 *402:A *164:12 0.000240684
17 *402:A *218:39 0
18 *419:A1 *419:A2 8.00842e-05
19 *419:A1 *543:CLK 0.000209526
20 *419:A1 *183:33 0
21 *527:A *392:B 0
22 *527:A *141:8 7.53184e-05
23 *527:A *163:21 0
24 *527:A *166:34 7.4563e-05
25 *41:24 *418:A 0
26 *41:24 *542:RESET_B 0
27 *41:24 *182:31 0
28 *41:24 *182:38 0
29 *41:32 *42:10 0.000236057
30 *41:49 *543:CLK 6.4771e-05
31 *41:49 *182:31 0.000257452
32 *41:49 *183:33 0
33 *41:49 *215:69 0.00012816
34 *41:60 *481:B 0.000106392
35 *41:60 *66:36 0
36 *41:60 *77:22 0.000180885
37 *41:60 *98:8 0.000392397
38 *41:60 *154:10 0
39 *41:60 *154:21 0
40 *41:60 *154:42 0
41 *41:60 *161:8 0
42 *41:60 *166:34 0
43 *41:60 *172:8 0
44 *41:60 *182:12 0
45 *41:60 *182:16 0
46 *41:60 *209:65 0
47 *41:60 *213:18 0.00018211
48 *41:71 *392:B 0
49 *41:71 *166:34 0
50 *41:75 *411:A2 0
51 *29:49 *402:A 0.000660988
52 *29:49 *41:75 0.000143571
*RES
1 *377:Y *41:6 40 
2 *41:6 *41:24 44.429 
3 *41:24 *41:32 45.7989 
4 *41:32 *540:D 40 
5 *41:6 *41:49 24.1818 
6 *41:49 *419:A1 21.4008 
7 *41:49 *41:60 38.8902 
8 *41:60 *402:A 44.429 
9 *41:60 *41:71 0.5974 
10 *41:71 *41:75 21.4008 
11 *41:75 *396:A 20.3502 
12 *41:75 *411:A1 20.5974 
13 *41:71 *527:A 41.4832 
*END

*D_NET *42 0.0012173
*CONN
*I *540:RESET_B I *D sg13g2_dfrbpq_1
*I *379:Y O *D sg13g2_inv_1
*CAP
1 *540:RESET_B 0
2 *379:Y 0.000490623
3 *42:10 0.000490623
4 *542:D *42:10 0
5 *41:32 *42:10 0.000236057
*RES
1 *379:Y *42:10 45.6753 
2 *42:10 *540:RESET_B 40 
*END

*D_NET *43 0.000386661
*CONN
*I *541:RESET_B I *D sg13g2_dfrbpq_1
*I *532:Y O *D sg13g2_inv_1
*CAP
1 *541:RESET_B 0.000169374
2 *532:Y 0.000169374
3 *541:RESET_B *542:RESET_B 4.79124e-05
4 *541:D *541:RESET_B 0
5 *542:D *541:RESET_B 0
*RES
1 *532:Y *541:RESET_B 41.9055 
*END

*D_NET *44 0.000840365
*CONN
*I *542:RESET_B I *D sg13g2_dfrbpq_1
*I *533:Y O *D sg13g2_inv_1
*CAP
1 *542:RESET_B 0.000396226
2 *533:Y 0.000396226
3 *542:RESET_B *540:CLK 0
4 *542:RESET_B *182:31 0
5 *542:RESET_B *182:38 0
6 *541:RESET_B *542:RESET_B 4.79124e-05
7 *541:D *542:RESET_B 0
8 *542:D *542:RESET_B 0
9 *41:24 *542:RESET_B 0
*RES
1 *533:Y *542:RESET_B 44.5114 
*END

*D_NET *45 0.000763613
*CONN
*I *543:RESET_B I *D sg13g2_dfrbpq_1
*I *534:Y O *D sg13g2_inv_1
*CAP
1 *543:RESET_B 8.08207e-05
2 *534:Y 0.000156768
3 *45:10 0.000237589
4 *543:RESET_B *179:6 0.000144217
5 *543:RESET_B *199:40 0.000144217
6 *45:10 *179:6 0
7 *45:10 *219:87 0
*RES
1 *534:Y *45:10 41.3802 
2 *45:10 *543:RESET_B 40.9682 
*END

*D_NET *46 0.000763246
*CONN
*I *544:RESET_B I *D sg13g2_dfrbpq_1
*I *535:Y O *D sg13g2_inv_1
*CAP
1 *544:RESET_B 0.000261281
2 *535:Y 0.000261281
3 *544:RESET_B *199:33 0.000240684
*RES
1 *535:Y *544:RESET_B 42.9561 
*END

*D_NET *47 0.000286258
*CONN
*I *545:RESET_B I *D sg13g2_dfrbpq_1
*I *536:Y O *D sg13g2_inv_1
*CAP
1 *545:RESET_B 0.000143129
2 *536:Y 0.000143129
3 *545:RESET_B *55:8 0
*RES
1 *536:Y *545:RESET_B 41.6171 
*END

*D_NET *48 0.00120958
*CONN
*I *546:RESET_B I *D sg13g2_dfrbpq_1
*I *537:Y O *D sg13g2_inv_1
*CAP
1 *546:RESET_B 0.000124697
2 *537:Y 0.000121458
3 *48:8 0.000246156
4 *546:RESET_B *436:A 0.000112198
5 *546:RESET_B *198:6 9.58364e-05
6 *546:RESET_B *219:6 0.000208035
7 *546:RESET_B *219:59 1.54008e-05
8 *48:8 *204:32 0.000285799
9 *48:8 *219:59 0
*RES
1 *537:Y *48:8 41.339 
2 *48:8 *546:RESET_B 41.4008 
*END

*D_NET *49 0.000532452
*CONN
*I *547:RESET_B I *D sg13g2_dfrbpq_1
*I *538:Y O *D sg13g2_inv_1
*CAP
1 *547:RESET_B 0
2 *538:Y 0.000122183
3 *49:8 0.000122183
4 *49:8 *547:CLK 0
5 *49:8 *181:39 0
6 *49:8 *188:12 0.000288087
7 sine_out[1] *49:8 0
*RES
1 *538:Y *49:8 41.8334 
2 *49:8 *547:RESET_B 40 
*END

*D_NET *50 0.00106362
*CONN
*I *548:RESET_B I *D sg13g2_dfrbpq_1
*I *539:Y O *D sg13g2_inv_1
*CAP
1 *548:RESET_B 0.000144379
2 *539:Y 0.000266395
3 *50:8 0.000410774
4 *548:RESET_B *443:A 0.000242071
5 *50:8 *62:10 0
6 *50:8 *181:10 0
7 *50:8 *181:39 0
8 *50:8 *188:12 0
9 *548:D *548:RESET_B 0
*RES
1 *539:Y *50:8 42.8222 
2 *50:8 *548:RESET_B 41.6171 
*END

*D_NET *51 0.00114446
*CONN
*I *433:B1 I *D sg13g2_a21oi_1
*I *427:X O *D sg13g2_and2_1
*CAP
1 *433:B1 0
2 *427:X 0.000429418
3 *51:10 0.000429418
4 *51:10 *427:A 0
5 *51:10 *198:35 0.000285622
*RES
1 *427:X *51:10 43.8522 
2 *51:10 *433:B1 40 
*END

*D_NET *52 0.0014604
*CONN
*I *433:A1 I *D sg13g2_a21oi_1
*I *430:A I *D sg13g2_xor2_1
*I *428:X O *D sg13g2_xor2_1
*CAP
1 *433:A1 0.000299485
2 *430:A 0.000383061
3 *428:X 0
4 *52:6 0.000682546
5 *430:A *53:10 1.54556e-05
6 *430:A *198:59 0
7 *433:A1 *433:A2 7.98484e-05
8 *433:A1 *208:29 0
*RES
1 *428:X *52:6 40 
2 *52:6 *430:A 43.7286 
3 *52:6 *433:A1 42.8634 
*END

*D_NET *53 0.00195319
*CONN
*I *433:A2 I *D sg13g2_a21oi_1
*I *430:B I *D sg13g2_xor2_1
*I *429:Y O *D sg13g2_o21ai_1
*CAP
1 *433:A2 0.000532096
2 *430:B 0
3 *429:Y 0.000396846
4 *53:10 0.000928942
5 *433:A2 *544:CLK 0
6 *433:A2 *199:33 0
7 *433:A2 *219:75 0
8 *53:10 *198:59 0
9 *53:10 *219:87 0
10 *430:A *53:10 1.54556e-05
11 *433:A1 *433:A2 7.98484e-05
*RES
1 *429:Y *53:10 44.4084 
2 *53:10 *430:B 40 
3 *53:10 *433:A2 45.6444 
*END

*D_NET *54 0.000884817
*CONN
*I *435:B1 I *D sg13g2_o21ai_1
*I *431:Y O *D sg13g2_nand2_1
*CAP
1 *435:B1 0.000431151
2 *431:Y 0.000431151
3 *435:B1 *435:A2 7.34141e-06
4 *435:B1 *544:CLK 0
5 *435:B1 *55:8 0
6 *435:B1 *198:98 1.51734e-05
7 *435:B1 *204:6 0
8 *435:B1 *204:10 0
*RES
1 *431:Y *435:B1 43.8152 
*END

*D_NET *55 0.000958375
*CONN
*I *435:A1 I *D sg13g2_o21ai_1
*I *434:A I *D sg13g2_xor2_1
*I *432:Y O *D sg13g2_xnor2_1
*CAP
1 *435:A1 6.22801e-05
2 *434:A 0
3 *432:Y 0.000416907
4 *55:8 0.000479187
5 *435:A1 *434:B 0
6 *55:8 *432:B 0
7 *55:8 *434:B 0
8 *55:8 *435:A2 0
9 *55:8 *198:27 0
10 *55:8 *198:98 0
11 *435:B1 *55:8 0
12 *545:RESET_B *55:8 0
*RES
1 *432:Y *55:8 24.4393 
2 *55:8 *434:A 20 
3 *55:8 *435:A1 20.5974 
*END

*D_NET *56 0.000756023
*CONN
*I *435:A2 I *D sg13g2_o21ai_1
*I *434:B I *D sg13g2_xor2_1
*I *433:Y O *D sg13g2_a21oi_1
*CAP
1 *435:A2 2.65959e-05
2 *434:B 0.000183174
3 *433:Y 0.000124387
4 *56:6 0.000334156
5 *434:B *198:27 8.03692e-05
6 *435:A2 *544:CLK 0
7 *56:6 *544:CLK 0
8 *56:6 *198:27 0
9 *56:6 *199:33 0
10 *435:B1 *435:A2 7.34141e-06
11 *435:A1 *434:B 0
12 *55:8 *434:B 0
13 *55:8 *435:A2 0
*RES
1 *433:Y *56:6 21.1845 
2 *56:6 *434:B 22.1218 
3 *56:6 *435:A2 20.5356 
*END

*D_NET *57 0.00138617
*CONN
*I *437:A I *D sg13g2_xnor2_1
*I *435:Y O *D sg13g2_o21ai_1
*CAP
1 *437:A 0.000382148
2 *435:Y 0.000121672
3 *57:8 0.00050382
4 *437:A *437:B 0
5 *437:A *544:CLK 0
6 *437:A *204:10 0
7 *437:A *219:6 0
8 *57:8 *183:27 0
9 *57:8 *199:31 0
10 *57:8 *204:32 0.000235153
11 *546:D *437:A 0
12 *560:A *437:A 0.000143379
*RES
1 *435:Y *57:8 41.5862 
2 *57:8 *437:A 42.2508 
*END

*D_NET *58 0.000299562
*CONN
*I *437:B I *D sg13g2_xnor2_1
*I *436:Y O *D sg13g2_xnor2_1
*CAP
1 *437:B 0.000149781
2 *436:Y 0.000149781
3 *437:B *436:A 0
4 *437:A *437:B 0
5 *546:D *437:B 0
*RES
1 *436:Y *437:B 41.6274 
*END

*D_NET *59 0.00024485
*CONN
*I *439:C I *D sg13g2_nor3_1
*I *438:Y O *D sg13g2_nand3b_1
*CAP
1 *439:C 0.000107069
2 *438:Y 0.000107069
3 *439:C *440:B 1.53561e-05
4 *439:C *171:22 1.53556e-05
5 *439:C *218:59 0
*RES
1 *438:Y *439:C 41.133 
*END

*D_NET *60 0.00249084
*CONN
*I *443:A I *D sg13g2_nor2_1
*I *440:B I *D sg13g2_xnor2_1
*I *439:Y O *D sg13g2_nor3_1
*CAP
1 *443:A 0.000322845
2 *440:B 0.000714633
3 *439:Y 0.000196987
4 *60:22 0.000840491
5 *440:B *378:A 0
6 *440:B *205:10 0
7 *440:B *206:64 0.00011157
8 *443:A *62:10 0
9 *443:A *188:12 0
10 *443:A *197:41 0
11 *443:A *199:12 4.68833e-05
12 *443:A *219:41 0
13 *60:22 *547:CLK 0
14 *60:22 *170:14 0
15 *60:22 *181:39 0
16 *60:22 *188:12 0
17 *60:22 *197:41 0
18 *439:C *440:B 1.53561e-05
19 *547:D *60:22 0
20 *548:RESET_B *443:A 0.000242071
21 *16:10 *443:A 0
22 *17:10 *60:22 0
23 *27:10 *60:22 0
*RES
1 *439:Y *440:B 41.8334 
2 *440:B *60:22 45.0264 
3 *60:22 *443:A 43.4814 
*END

*D_NET *61 0.00589679
*CONN
*I *482:B I *D sg13g2_nor4_1
*I *442:A2 I *D sg13g2_a21oi_1
*I *441:Y O *D sg13g2_nor3_1
*CAP
1 *482:B 5.30428e-05
2 *442:A2 0.00172825
3 *441:Y 0.000169816
4 *61:10 0.0017813
5 *61:8 0.000169816
6 *442:A2 *401:A 0
7 *442:A2 *442:A1 0.000112198
8 *442:A2 *464:A 0.000176508
9 *442:A2 *473:B 0
10 *442:A2 *500:B 0
11 *442:A2 *502:A 0.000790951
12 *442:A2 *502:B 0.000497796
13 *442:A2 *521:A 0.000112683
14 *442:A2 *579:A 0
15 *442:A2 *83:18 0
16 *442:A2 *203:35 0.000273624
17 *442:A2 *206:10 0
18 *482:B *482:A 1.54008e-05
19 *482:B *203:35 1.54008e-05
20 *61:8 *101:8 0
21 *61:8 *151:18 0
22 *61:8 *207:48 0
23 *548:D *442:A2 0
24 *549:A *442:A2 0
25 *3:20 *442:A2 0
26 *39:33 *442:A2 0
*RES
1 *441:Y *61:8 41.339 
2 *61:8 *61:10 20 
3 *61:10 *442:A2 37.0012 
4 *61:10 *482:B 20.5356 
*END

*D_NET *62 0.000990004
*CONN
*I *443:B I *D sg13g2_nor2_1
*I *442:Y O *D sg13g2_a21oi_1
*CAP
1 *443:B 0
2 *442:Y 0.000296803
3 *62:10 0.000296803
4 *62:10 *188:12 0.000396398
5 *62:10 *219:31 0
6 *62:10 *219:41 0
7 *443:A *62:10 0
8 *548:D *62:10 0
9 *50:8 *62:10 0
*RES
1 *442:Y *62:10 43.4505 
2 *62:10 *443:B 40 
*END

*D_NET *63 0.00420388
*CONN
*I *488:A1 I *D sg13g2_a21oi_1
*I *446:B I *D sg13g2_nor2_1
*I *485:B2 I *D sg13g2_a221oi_1
*I *444:X O *D sg13g2_and2_1
*CAP
1 *488:A1 0
2 *446:B 0
3 *485:B2 0
4 *444:X 0.000122436
5 *63:46 0.000168279
6 *63:35 0.000587291
7 *63:14 0.000837993
8 *63:10 0.000204859
9 *63:10 *444:B 0.000111334
10 *63:10 *486:B 8.80462e-05
11 *63:10 *142:31 0.00012816
12 *63:14 *486:B 0.000129227
13 *63:14 *104:10 4.75151e-05
14 *63:14 *164:27 1.54008e-05
15 *63:35 *481:B 0.00012816
16 *63:35 *484:B1 0
17 *63:35 *484:A1 2.04787e-05
18 *63:35 *486:B 8.03692e-05
19 *63:35 *98:8 0.000128662
20 *63:35 *110:16 0.000333542
21 *63:35 *164:27 4.77699e-05
22 *63:35 *209:65 0.000288173
23 *63:46 *77:8 0
24 *63:46 *104:10 0
25 *63:46 *106:10 0.000287342
26 *63:46 *109:10 0
27 *63:46 *164:27 0.000448843
28 *39:46 *63:35 0
*RES
1 *444:X *63:10 41.3493 
2 *63:10 *63:14 20.9682 
3 *63:14 *485:B2 20 
4 *63:14 *63:35 46.489 
5 *63:35 *446:B 20 
6 *63:14 *63:46 42.575 
7 *63:46 *488:A1 20 
*END

*D_NET *64 0.00135306
*CONN
*I *454:B I *D sg13g2_nor3_1
*I *445:Y O *D sg13g2_nand2_1
*CAP
1 *454:B 0.00017001
2 *445:Y 0
3 *64:14 0.000432913
4 *64:6 0.000262902
5 *454:B *454:A 0
6 *454:B *455:B1 0
7 *454:B *217:10 0.000144842
8 *64:14 *142:31 0.00034239
9 *64:14 *207:75 0
*RES
1 *445:Y *64:6 40 
2 *64:6 *64:14 42.8634 
3 *64:14 *454:B 41.6171 
*END

*D_NET *65 0.00337748
*CONN
*I *455:A1 I *D sg13g2_a21oi_1
*I *451:A1 I *D sg13g2_o21ai_1
*I *484:A2 I *D sg13g2_a22oi_1
*I *446:Y O *D sg13g2_nor2_1
*CAP
1 *455:A1 0
2 *451:A1 0
3 *484:A2 0
4 *446:Y 0.00020322
5 *65:38 0.000453327
6 *65:23 0.000836348
7 *65:6 0.000586241
8 *65:6 *459:A 0.000176789
9 *65:6 *484:B1 0
10 *65:6 *484:B2 0.00014436
11 *65:6 *77:22 0
12 *65:6 *102:10 0
13 *65:6 *209:65 1.54008e-05
14 *65:23 *459:A 9.67976e-05
15 *65:23 *491:B1 0
16 *65:23 *75:10 0.000124702
17 *65:23 *77:8 0.000127853
18 *65:23 *97:12 0.000111685
19 *65:23 *102:10 0
20 *65:23 *109:10 0.000175693
21 *65:23 *161:44 0
22 *65:38 *454:A 0.000112596
23 *65:38 *455:A2 1.54556e-05
24 *65:38 *456:A1 0
25 *65:38 *456:A2 0
26 *65:38 *69:24 1.54008e-05
27 *65:38 *69:30 0
28 *65:38 *74:8 0.000181608
29 *65:38 *97:8 0
30 *65:38 *109:10 0
31 *65:38 *142:31 0
32 *65:38 *204:104 0
33 *65:38 *207:75 0
*RES
1 *446:Y *65:6 22.0497 
2 *65:6 *484:A2 20 
3 *65:6 *65:23 43.8728 
4 *65:23 *451:A1 20 
5 *65:23 *65:38 44.326 
6 *65:38 *455:A1 20 
*END

*D_NET *66 0.00292513
*CONN
*I *479:B_N I *D sg13g2_nor2b_1
*I *450:B I *D sg13g2_and3_1
*I *475:B I *D sg13g2_nand3b_1
*I *447:Y O *D sg13g2_nand2_1
*CAP
1 *479:B_N 0
2 *450:B 0
3 *475:B 0
4 *447:Y 0.000184424
5 *66:36 0.000525435
6 *66:23 0.000223555
7 *66:8 0.000933414
8 *66:8 *447:B 0
9 *66:8 *455:A2 0.000176252
10 *66:8 *475:C 0.000117068
11 *66:8 *68:38 0
12 *66:8 *71:25 7.94445e-05
13 *66:23 *447:B 0.000203289
14 *66:23 *94:8 0
15 *66:23 *107:31 0
16 *66:36 *454:A 0.000208853
17 *66:36 *455:A2 0.000273394
18 *66:36 *197:108 0
19 *66:36 *211:36 0
20 *41:60 *66:36 0
*RES
1 *447:Y *66:8 21.9673 
2 *66:8 *475:B 20 
3 *66:8 *66:23 42.1166 
4 *66:23 *450:B 20 
5 *66:8 *66:36 44.9028 
6 *66:36 *479:B_N 20 
*END

*D_NET *67 0.00378807
*CONN
*I *473:C I *D sg13g2_nand3_1
*I *496:A2 I *D sg13g2_a21oi_1
*I *449:B I *D sg13g2_or2_1
*I *448:X O *D sg13g2_xor2_1
*CAP
1 *473:C 0.000184947
2 *496:A2 3.61129e-05
3 *449:B 8.66363e-05
4 *448:X 0
5 *67:10 0.00061543
6 *67:4 0.000677627
7 *449:B *112:12 0.000179553
8 *449:B *139:10 0
9 *473:C *473:B 1.00105e-05
10 *473:C *218:47 7.93965e-05
11 *496:A2 *496:A1 1.54008e-05
12 *67:10 *579:A 0.000112541
13 *67:10 *112:12 0.000548498
14 *67:10 *120:8 0
15 *67:10 *187:8 0
16 *67:10 *214:106 0.00112926
17 *67:10 *218:47 6.48861e-05
18 *67:10 *218:49 4.77702e-05
19 *3:20 *473:C 0
*RES
1 *448:X *67:4 20 
2 *67:4 *67:10 26.7877 
3 *67:10 *449:B 41.1639 
4 *67:10 *496:A2 40.3193 
5 *67:4 *473:C 21.8179 
*END

*D_NET *68 0.00682243
*CONN
*I *475:C I *D sg13g2_nand3b_1
*I *450:C I *D sg13g2_and3_1
*I *493:A1 I *D sg13g2_a21oi_1
*I *505:A2 I *D sg13g2_o21ai_1
*I *449:X O *D sg13g2_or2_1
*CAP
1 *475:C 9.6322e-05
2 *450:C 0
3 *493:A1 0
4 *505:A2 0.000663139
5 *449:X 0.000170347
6 *68:54 0.000319527
7 *68:38 0.00119743
8 *68:27 0.000820261
9 *68:10 0.000701822
10 *68:8 0.000170347
11 *475:C *475:A_N 4.77702e-05
12 *475:C *514:B1 0
13 *505:A2 *505:B1 3.75762e-05
14 *505:A2 *523:A1 0
15 *505:A2 *523:A2 0.000143582
16 *505:A2 *524:B1 0
17 *505:A2 *71:8 0.000198144
18 *505:A2 *71:42 0
19 *505:A2 *76:10 4.78044e-05
20 *505:A2 *143:27 0.00024172
21 *505:A2 *208:20 1.54008e-05
22 *505:A2 *213:49 8.00842e-05
23 *68:8 *494:A2 0.000231089
24 *68:8 *496:A1 0
25 *68:8 *112:12 0
26 *68:8 *139:10 0
27 *68:8 *142:50 0
28 *68:27 *523:A2 6.4375e-05
29 *68:27 *71:8 7.99216e-05
30 *68:38 *462:A2 0.000144168
31 *68:38 *514:B1 0
32 *68:38 *520:B1 0
33 *68:38 *523:A2 0.000107853
34 *68:38 *71:8 1.53835e-05
35 *68:38 *71:25 0.000759078
36 *68:38 *204:74 0
37 *68:38 *208:93 0
38 *68:54 *69:20 0
39 *68:54 *107:31 0.000174097
40 *68:54 *180:43 0
41 *68:54 *209:52 0.00017812
42 *66:8 *475:C 0.000117068
43 *66:8 *68:38 0
*RES
1 *449:X *68:8 41.8334 
2 *68:8 *68:10 20 
3 *68:10 *505:A2 26.6332 
4 *68:10 *68:27 0.5356 
5 *68:27 *493:A1 20 
6 *68:27 *68:38 7.9413 
7 *68:38 *68:54 43.4943 
8 *68:54 *450:C 20 
9 *68:38 *475:C 21.3132 
*END

*D_NET *69 0.00330574
*CONN
*I *477:A I *D sg13g2_nor3_1
*I *451:A2 I *D sg13g2_o21ai_1
*I *485:A2 I *D sg13g2_a221oi_1
*I *450:X O *D sg13g2_and3_1
*CAP
1 *477:A 0.000197091
2 *451:A2 0
3 *485:A2 0
4 *450:X 0.000148251
5 *69:30 0.000186474
6 *69:24 0.000345877
7 *69:20 0.000796053
8 *69:8 0.000981992
9 *477:A *481:C 0
10 *477:A *77:22 0
11 *477:A *95:8 0
12 *477:A *207:52 0
13 *477:A *209:52 8.02269e-05
14 *69:8 *94:8 0
15 *69:8 *197:93 0
16 *69:8 *209:52 0
17 *69:20 *476:B 8.00842e-05
18 *69:20 *75:10 0
19 *69:20 *77:22 0
20 *69:20 *97:22 0
21 *69:20 *107:31 0
22 *69:20 *197:108 0
23 *69:20 *209:52 0
24 *69:20 *211:36 0
25 *69:24 *455:A2 0
26 *69:24 *75:10 0
27 *69:24 *97:12 0.000176396
28 *69:24 *207:75 4.77702e-05
29 *69:30 *78:31 0.000250121
30 *69:30 *97:8 0
31 *69:30 *109:10 0
32 *65:38 *69:24 1.54008e-05
33 *65:38 *69:30 0
34 *68:54 *69:20 0
*RES
1 *450:X *69:8 41.0918 
2 *69:8 *69:20 45.6959 
3 *69:20 *69:24 21.6171 
4 *69:24 *69:30 41.6815 
5 *69:30 *485:A2 20 
6 *69:24 *451:A2 20 
7 *69:8 *477:A 41.6274 
*END

*D_NET *70 0.000408155
*CONN
*I *456:A1 I *D sg13g2_a21oi_1
*I *451:Y O *D sg13g2_o21ai_1
*CAP
1 *456:A1 0.00015625
2 *451:Y 0.00015625
3 *456:A1 *456:A2 8.02267e-05
4 *456:A1 *207:75 1.54285e-05
5 *65:38 *456:A1 0
*RES
1 *451:Y *456:A1 42.163 
*END

*D_NET *71 0.00754464
*CONN
*I *504:A I *D sg13g2_and2_1
*I *455:A2 I *D sg13g2_a21oi_1
*I *493:A2 I *D sg13g2_a21oi_1
*I *452:Y O *D sg13g2_nand2_1
*CAP
1 *504:A 0
2 *455:A2 0.000755766
3 *493:A2 0
4 *452:Y 0
5 *71:42 0.000649973
6 *71:25 0.00153436
7 *71:8 0.000986057
8 *71:4 0.000857439
9 *455:A2 *447:B 0.00014391
10 *455:A2 *454:A 0
11 *455:A2 *456:A2 0
12 *455:A2 *75:10 0
13 *455:A2 *97:12 0
14 *455:A2 *107:31 0
15 *455:A2 *207:75 0
16 *71:8 *449:A 0
17 *71:8 *462:B1 0
18 *71:8 *494:A2 0
19 *71:8 *180:23 0
20 *71:25 *447:B 0
21 *71:25 *462:A1 0.000112458
22 *71:25 *462:B1 0.000208282
23 *71:25 *494:A1 0
24 *71:25 *494:A2 0
25 *71:25 *564:A 0
26 *71:25 *209:8 0
27 *71:25 *209:18 0
28 *71:42 *76:10 4.74714e-05
29 *71:42 *84:16 0.000112426
30 *71:42 *84:26 8.00842e-05
31 *71:42 *143:27 0.000234357
32 *71:42 *144:33 9.71404e-05
33 *71:42 *144:39 4.77699e-05
34 *71:42 *180:23 0
35 *71:42 *213:49 8.00842e-05
36 *505:A2 *71:8 0.000198144
37 *505:A2 *71:42 0
38 *65:38 *455:A2 1.54556e-05
39 *66:8 *455:A2 0.000176252
40 *66:8 *71:25 7.94445e-05
41 *66:36 *455:A2 0.000273394
42 *68:27 *71:8 7.99216e-05
43 *68:38 *71:8 1.53835e-05
44 *68:38 *71:25 0.000759078
45 *69:24 *455:A2 0
*RES
1 *452:Y *71:4 20 
2 *71:4 *71:8 2.2145 
3 *71:8 *493:A2 20 
4 *71:8 *71:25 48.1061 
5 *71:25 *455:A2 26.8083 
6 *71:4 *71:42 46.2727 
7 *71:42 *504:A 20 
*END

*D_NET *72 0.00181259
*CONN
*I *511:B1 I *D sg13g2_o21ai_1
*I *454:C I *D sg13g2_nor3_1
*I *453:Y O *D sg13g2_a21oi_1
*CAP
1 *511:B1 0
2 *454:C 0
3 *453:Y 0.000492741
4 *72:22 7.74621e-05
5 *72:16 0.000570203
6 *72:16 *512:B1 0.000379412
7 *72:16 *147:55 0.0001122
8 *72:16 *215:12 0
9 *72:22 *157:8 0
10 *72:22 *214:70 0.000180574
11 *31:27 *72:16 0
*RES
1 *453:Y *72:16 25.3148 
2 *72:16 *72:22 40.8446 
3 *72:22 *454:C 20 
4 *72:16 *511:B1 20 
*END

*D_NET *73 0.000620239
*CONN
*I *455:B1 I *D sg13g2_a21oi_1
*I *454:Y O *D sg13g2_nor3_1
*CAP
1 *455:B1 0.000286248
2 *454:Y 0.000286248
3 *455:B1 *454:A 0
4 *455:B1 *161:23 0
5 *455:B1 *217:10 0
6 *455:B1 *217:53 4.77425e-05
7 *454:B *455:B1 0
*RES
1 *454:Y *455:B1 42.781 
*END

*D_NET *74 0.000582673
*CONN
*I *456:A2 I *D sg13g2_a21oi_1
*I *455:Y O *D sg13g2_a21oi_1
*CAP
1 *456:A2 4.97214e-05
2 *455:Y 0.000110698
3 *74:8 0.000160419
4 *74:8 *97:8 0
5 *455:A2 *456:A2 0
6 *456:A1 *456:A2 8.02267e-05
7 *65:38 *456:A2 0
8 *65:38 *74:8 0.000181608
*RES
1 *455:Y *74:8 41.339 
2 *74:8 *456:A2 40.5356 
*END

*D_NET *75 0.00463054
*CONN
*I *468:C1 I *D sg13g2_a221oi_1
*I *456:Y O *D sg13g2_a21oi_1
*CAP
1 *468:C1 0
2 *456:Y 0.00038848
3 *75:18 0
4 *75:14 0.00107504
5 *75:10 0.00146352
6 *75:10 *97:22 0
7 *75:10 *107:37 0
8 *75:10 *161:44 0
9 *75:14 *78:16 0
10 *75:14 *214:89 0.0015788
11 *455:A2 *75:10 0
12 *65:23 *75:10 0.000124702
13 *69:20 *75:10 0
14 *69:24 *75:10 0
*RES
1 *456:Y *75:10 43.296 
2 *75:10 *75:14 30.4854 
3 *75:14 *75:18 40 
4 *75:18 *468:C1 20 
*END

*D_NET *76 0.00570359
*CONN
*I *468:A1 I *D sg13g2_a221oi_1
*I *521:B I *D sg13g2_nand2_1
*I *457:Y O *D sg13g2_nor2_1
*CAP
1 *468:A1 0
2 *521:B 0.000141155
3 *457:Y 0.000517164
4 *76:33 0.000796329
5 *76:12 0.000937484
6 *76:10 0.000517164
7 *521:B *521:A 0
8 *521:B *181:8 0.000208265
9 *521:B *206:10 4.68848e-05
10 *76:10 *500:C 0
11 *76:10 *84:16 0
12 *76:10 *118:8 0.000234224
13 *76:10 *143:27 0
14 *76:10 *206:14 0.000659649
15 *76:10 *208:61 0
16 *76:33 *449:A 0
17 *76:33 *468:B1 1.54285e-05
18 *76:33 *468:A2 1.27453e-05
19 *76:33 *480:B 0.000112648
20 *76:33 *481:C 0
21 *76:33 *502:B 0
22 *76:33 *561:A 0.000112454
23 *76:33 *99:10 0.000175565
24 *76:33 *181:8 0.000129177
25 *76:33 *197:21 8.00842e-05
26 *76:33 *197:31 0.000495686
27 *76:33 *197:93 0.000143351
28 *76:33 *206:10 0.000272859
29 *76:33 *218:70 0
30 *505:A2 *76:10 4.78044e-05
31 *71:42 *76:10 4.74714e-05
*RES
1 *457:Y *76:10 45.8607 
2 *76:10 *76:12 20 
3 *76:12 *521:B 21.4008 
4 *76:12 *76:33 48.4872 
5 *76:33 *468:A1 20 
*END

*D_NET *77 0.00280525
*CONN
*I *491:A1 I *D sg13g2_o21ai_1
*I *477:B I *D sg13g2_nor3_1
*I *458:Y O *D sg13g2_nand2b_1
*CAP
1 *491:A1 0
2 *477:B 0
3 *458:Y 0.000148019
4 *77:22 0.000449021
5 *77:12 0.000491208
6 *77:8 0.000190207
7 *77:8 *78:31 0
8 *77:8 *102:10 0.000233917
9 *77:8 *109:10 0
10 *77:12 *459:A 8.01116e-05
11 *77:12 *491:A2 3.23417e-05
12 *77:22 *459:A 0.000176789
13 *77:22 *477:C 8.01995e-05
14 *77:22 *491:B1 0
15 *77:22 *491:A2 1.54008e-05
16 *77:22 *97:22 0.000273399
17 *77:22 *154:42 0.000181218
18 *77:22 *209:52 0.000112228
19 *77:22 *209:65 3.24568e-05
20 *477:A *77:22 0
21 *41:60 *77:22 0.000180885
22 *63:46 *77:8 0
23 *65:6 *77:22 0
24 *65:23 *77:8 0.000127853
25 *69:20 *77:22 0
*RES
1 *458:Y *77:8 42.0806 
2 *77:8 *77:12 20.5356 
3 *77:12 *77:22 44.944 
4 *77:22 *477:B 20 
5 *77:12 *491:A1 20 
*END

*D_NET *78 0.00390457
*CONN
*I *485:B1 I *D sg13g2_a221oi_1
*I *463:A I *D sg13g2_or2_1
*I *459:Y O *D sg13g2_nor2_1
*CAP
1 *485:B1 0
2 *463:A 0
3 *459:Y 0
4 *78:31 0.000227555
5 *78:16 0.00131596
6 *78:10 0.00170762
7 *78:6 0.000164107
8 *78:10 *214:89 0
9 *78:16 *463:B 0
10 *78:16 *495:A 0
11 *78:16 *88:14 0.000128247
12 *78:16 *180:19 0
13 *78:16 *180:39 0
14 *78:16 *204:104 0
15 *78:31 *444:B 1.54285e-05
16 *78:31 *486:B 4.77702e-05
17 *78:31 *109:10 0
18 *78:31 *161:44 4.77702e-05
19 *69:30 *78:31 0.000250121
20 *75:14 *78:16 0
21 *77:8 *78:31 0
*RES
1 *459:Y *78:6 40 
2 *78:6 *78:10 21.8334 
3 *78:10 *78:16 32.1643 
4 *78:16 *463:A 40 
5 *78:10 *78:31 42.1527 
6 *78:31 *485:B1 20 
*END

*D_NET *79 0.00113173
*CONN
*I *510:C I *D sg13g2_and3_1
*I *469:A2 I *D sg13g2_a21oi_1
*I *460:Y O *D sg13g2_nor2_1
*CAP
1 *510:C 2.47681e-05
2 *469:A2 0
3 *460:Y 0.000135428
4 *79:20 0.000270418
5 *79:10 0.000430614
6 *510:C *460:B 0
7 *79:10 *460:B 0
8 *79:20 *460:B 0
9 *79:20 *469:A1 4.77425e-05
10 *79:20 *513:A2 0
11 *79:20 *162:14 0.00012596
12 *79:20 *215:36 9.67976e-05
*RES
1 *460:Y *79:10 21.5141 
2 *79:10 *79:20 42.7501 
3 *79:20 *469:A2 20 
4 *79:10 *510:C 20.3193 
*END

*D_NET *80 0.00114526
*CONN
*I *478:A2 I *D sg13g2_o21ai_1
*I *512:A2 I *D sg13g2_o21ai_1
*I *461:Y O *D sg13g2_xnor2_1
*CAP
1 *478:A2 0.000103323
2 *512:A2 0.000171346
3 *461:Y 8.58924e-05
4 *80:8 0.000360561
5 *478:A2 *478:B1 2.14736e-05
6 *478:A2 *215:8 0
7 *478:A2 *217:10 4.77699e-05
8 *478:A2 *217:53 0
9 *512:A2 *445:A 0
10 *512:A2 *454:A 0
11 *512:A2 *512:B1 0.000307126
12 *512:A2 *161:23 0
13 *512:A2 *217:10 4.77699e-05
14 *80:8 *215:8 0
*RES
1 *461:Y *80:8 40.5974 
2 *80:8 *512:A2 42.0497 
3 *80:8 *478:A2 40.9167 
*END

*D_NET *81 0.000945384
*CONN
*I *463:B I *D sg13g2_or2_1
*I *494:A1 I *D sg13g2_o21ai_1
*I *462:Y O *D sg13g2_a21oi_1
*CAP
1 *463:B 0.000123987
2 *494:A1 5.38654e-05
3 *462:Y 5.49593e-05
4 *81:8 0.000232812
5 *463:B *495:A 0.000316848
6 *463:B *88:14 0
7 *463:B *142:42 2.14736e-05
8 *494:A1 *462:B1 0
9 *494:A1 *494:B1 0
10 *494:A1 *494:A2 1.54285e-05
11 *81:8 *88:14 0
12 *81:8 *142:42 0.00012601
13 *71:25 *494:A1 0
14 *78:16 *463:B 0
*RES
1 *462:Y *81:8 40.5974 
2 *81:8 *494:A1 40.5356 
3 *81:8 *463:B 41.5862 
*END

*D_NET *82 0.000824038
*CONN
*I *468:A2 I *D sg13g2_a221oi_1
*I *463:X O *D sg13g2_or2_1
*CAP
1 *468:A2 8.85398e-05
2 *463:X 0.000140306
3 *82:8 0.000228845
4 *468:A2 *468:B1 0
5 *468:A2 *481:C 0
6 *468:A2 *87:12 1.85589e-05
7 *82:8 *495:A 0.000335043
8 *82:8 *88:14 0
9 *76:33 *468:A2 1.27453e-05
*RES
1 *463:X *82:8 41.5862 
2 *82:8 *468:A2 40.8987 
*END

*D_NET *83 0.00247591
*CONN
*I *500:B I *D sg13g2_nand3_1
*I *467:A1 I *D sg13g2_a21oi_1
*I *464:Y O *D sg13g2_nand2_1
*CAP
1 *500:B 0.000287949
2 *467:A1 0
3 *464:Y 0
4 *83:18 0.000560116
5 *83:4 0.000848065
6 *500:B *464:A 0.000176508
7 *500:B *464:B 0.000112683
8 *500:B *500:C 3.72762e-05
9 *500:B *197:41 0
10 *500:B *202:26 4.74605e-05
11 *83:18 *442:A1 0.000235153
12 *83:18 *467:B1 0
13 *83:18 *521:A 0
14 *83:18 *522:A1 0
15 *83:18 *84:26 9.5485e-05
16 *83:18 *138:8 0
17 *83:18 *197:41 0
18 *83:18 *201:66 7.52158e-05
19 *83:18 *201:77 0
20 *83:18 *202:26 0
21 *442:A2 *500:B 0
22 *442:A2 *83:18 0
23 *548:D *83:18 0
*RES
1 *464:Y *83:4 20 
2 *83:4 *83:18 45.6135 
3 *83:18 *467:A1 20 
4 *83:4 *500:B 22.9355 
*END

*D_NET *84 0.00561256
*CONN
*I *500:C I *D sg13g2_nand3_1
*I *504:B I *D sg13g2_and2_1
*I *467:A2 I *D sg13g2_a21oi_1
*I *465:Y O *D sg13g2_nand3_1
*CAP
1 *500:C 0.000398964
2 *504:B 0
3 *467:A2 0
4 *465:Y 0.000123705
5 *84:26 0.000361346
6 *84:16 0.000765705
7 *84:8 0.000927029
8 *500:C *119:10 0.000231845
9 *500:C *208:61 0.000286343
10 *84:8 *465:A 0.000208227
11 *84:8 *139:10 0.000208227
12 *84:8 *206:23 1.54008e-05
13 *84:16 *499:A 0
14 *84:16 *117:16 0
15 *84:16 *208:61 0.000390597
16 *84:26 *506:B1 7.9225e-05
17 *84:26 *124:8 0.000129078
18 *84:26 *143:27 0
19 *84:26 *197:41 0.000447597
20 *84:26 *199:18 0.000714003
21 *500:B *500:C 3.72762e-05
22 *71:42 *84:16 0.000112426
23 *71:42 *84:26 8.00842e-05
24 *76:10 *500:C 0
25 *76:10 *84:16 0
26 *83:18 *84:26 9.5485e-05
*RES
1 *465:Y *84:8 41.4008 
2 *84:8 *84:16 24.2024 
3 *84:16 *84:26 45.253 
4 *84:26 *467:A2 20 
5 *84:16 *504:B 20 
6 *84:8 *500:C 44.3003 
*END

*D_NET *85 0.00188426
*CONN
*I *468:B1 I *D sg13g2_a221oi_1
*I *466:Y O *D sg13g2_nand2_1
*CAP
1 *468:B1 0.00021378
2 *466:Y 0.000376611
3 *85:8 0.000590391
4 *468:B1 *497:C 0.000241512
5 *468:B1 *197:93 0.000370994
6 *85:8 *114:14 0
7 *85:8 *180:11 0
8 *85:8 *180:19 0
9 *85:8 *203:23 0
10 *85:8 *204:85 7.55443e-05
11 *85:8 *209:18 0
12 *468:A2 *468:B1 0
13 *566:A *85:8 0
14 *76:33 *468:B1 1.54285e-05
*RES
1 *466:Y *85:8 42.8222 
2 *85:8 *468:B1 42.4823 
*END

*D_NET *86 0.00255778
*CONN
*I *468:B2 I *D sg13g2_a221oi_1
*I *467:Y O *D sg13g2_a21oi_1
*CAP
1 *468:B2 0.000129229
2 *467:Y 9.63181e-05
3 *86:16 0.00102388
4 *86:8 0.00099097
5 *468:B2 *114:14 0.000111685
6 *468:B2 *197:93 8.01118e-05
7 *86:8 *143:27 0
8 *86:16 *197:19 0.00012559
9 *86:16 *214:89 0
10 *86:16 *214:97 0
*RES
1 *467:Y *86:8 40.7519 
2 *86:8 *86:16 48.0546 
3 *86:16 *468:B2 41.1845 
*END

*D_NET *87 0.00166294
*CONN
*I *483:A2 I *D sg13g2_a22oi_1
*I *468:Y O *D sg13g2_a221oi_1
*CAP
1 *483:A2 0
2 *468:Y 0.000536767
3 *87:12 0.000536767
4 *87:12 *385:B 0
5 *87:12 *481:C 8.01116e-05
6 *87:12 *88:14 0.000181192
7 *87:12 *88:33 0.000234329
8 *87:12 *92:10 0
9 *468:A2 *87:12 1.85589e-05
10 *29:63 *87:12 7.52158e-05
*RES
1 *468:Y *87:12 45.9328 
2 *87:12 *483:A2 40 
*END

*D_NET *88 0.00708999
*CONN
*I *470:B I *D sg13g2_nand2_1
*I *495:B I *D sg13g2_nor2_1
*I *469:Y O *D sg13g2_a21oi_1
*CAP
1 *470:B 8.96773e-05
2 *495:B 3.34444e-05
3 *469:Y 0.000619179
4 *88:33 0.000647289
5 *88:14 0.00124384
6 *88:12 0.00127197
7 *495:B *110:16 4.77425e-05
8 *88:12 *383:B 0.000459012
9 *88:12 *126:12 0
10 *88:12 *142:10 7.33256e-05
11 *88:12 *142:42 0.000318191
12 *88:12 *149:12 0
13 *88:12 *155:38 0
14 *88:12 *208:99 0
15 *88:12 *210:10 4.77425e-05
16 *88:12 *212:43 0
17 *88:14 *385:B 0
18 *88:14 *149:25 0
19 *88:33 *385:B 0
20 *88:33 *405:B 0
21 *88:33 *495:A 0
22 *88:33 *502:A 0.000532612
23 *88:33 *110:16 0
24 *88:33 *115:8 7.33225e-05
25 *88:33 *200:8 7.51285e-05
26 *88:33 *200:25 0.000372152
27 *88:33 *203:23 0.000231238
28 *88:33 *203:44 0.000395177
29 *463:B *88:14 0
30 *565:A *88:12 0
31 *29:63 *470:B 1.51749e-05
32 *78:16 *88:14 0.000128247
33 *81:8 *88:14 0
34 *82:8 *88:14 0
35 *87:12 *88:14 0.000181192
36 *87:12 *88:33 0.000234329
*RES
1 *469:Y *88:12 46.7053 
2 *88:12 *88:14 5.5414 
3 *88:14 *495:B 40.3193 
4 *88:14 *88:33 47.4778 
5 *88:33 *470:B 40.7519 
*END

*D_NET *89 0.00197669
*CONN
*I *472:B1 I *D sg13g2_o21ai_1
*I *470:Y O *D sg13g2_nand2_1
*CAP
1 *472:B1 0.000440637
2 *470:Y 0.000133682
3 *89:8 0.000574319
4 *472:B1 *412:A 4.77425e-05
5 *472:B1 *472:A2 1.54008e-05
6 *472:B1 *474:A 1.54008e-05
7 *472:B1 *483:B2 0
8 *472:B1 *202:86 0
9 *89:8 *405:A 0.000284403
10 *89:8 *167:12 0
11 *89:8 *200:25 0.000390282
12 *89:8 *200:40 7.48178e-05
*RES
1 *470:Y *89:8 42.0806 
2 *89:8 *472:B1 43.7801 
*END

*D_NET *90 0.000530454
*CONN
*I *472:A2 I *D sg13g2_o21ai_1
*I *471:Y O *D sg13g2_a21oi_1
*CAP
1 *472:A2 0.00020987
2 *471:Y 0.00020987
3 *472:A2 *385:B 4.75425e-05
4 *472:A2 *474:A 0
5 *472:A2 *202:73 4.77699e-05
6 *472:A2 *206:72 0
7 *472:A2 *207:42 0
8 *472:B1 *472:A2 1.54008e-05
9 *29:63 *472:A2 0
*RES
1 *471:Y *472:A2 42.2454 
*END

*D_NET *91 0.000616688
*CONN
*I *474:A I *D sg13g2_nand2_1
*I *472:Y O *D sg13g2_o21ai_1
*CAP
1 *474:A 0.000300643
2 *472:Y 0.000300643
3 *474:A *474:B 0
4 *474:A *483:B1 0
5 *474:A *216:10 0
6 *472:B1 *474:A 1.54008e-05
7 *472:A2 *474:A 0
*RES
1 *472:Y *474:A 42.7913 
*END

*D_NET *92 0.000973324
*CONN
*I *474:B I *D sg13g2_nand2_1
*I *473:Y O *D sg13g2_nand3_1
*CAP
1 *474:B 0.000148167
2 *473:Y 0.000130273
3 *92:10 0.000278439
4 *474:B *483:B1 0.000111828
5 *474:B *483:B2 0.000209198
6 *92:10 *218:47 4.78769e-05
7 *474:A *474:B 0
8 *29:63 *92:10 4.75425e-05
9 *87:12 *92:10 0
*RES
1 *473:Y *92:10 41.4111 
2 *92:10 *474:B 41.751 
*END

*D_NET *93 0.000521136
*CONN
*I *483:B1 I *D sg13g2_a22oi_1
*I *474:Y O *D sg13g2_nand2_1
*CAP
1 *483:B1 0.000180698
2 *474:Y 0.000180698
3 *483:B1 *483:B2 0
4 *483:B1 *216:10 4.79124e-05
5 *474:A *483:B1 0
6 *474:B *483:B1 0.000111828
*RES
1 *474:Y *483:B1 41.751 
*END

*D_NET *94 0.000963091
*CONN
*I *476:B I *D sg13g2_and2_1
*I *475:Y O *D sg13g2_nand3b_1
*CAP
1 *476:B 4.79104e-05
2 *475:Y 0.00034585
3 *94:8 0.000393761
4 *476:B *197:97 8.00842e-05
5 *476:B *197:108 1.54008e-05
6 *94:8 *154:42 0
7 *94:8 *197:93 0
8 *66:23 *94:8 0
9 *69:8 *94:8 0
10 *69:20 *476:B 8.00842e-05
*RES
1 *475:Y *94:8 42.575 
2 *94:8 *476:B 40.5356 
*END

*D_NET *95 0.00059286
*CONN
*I *477:C I *D sg13g2_nor3_1
*I *476:X O *D sg13g2_and2_1
*CAP
1 *477:C 5.00982e-05
2 *476:X 0.000206232
3 *95:8 0.00025633
4 *477:C *481:B 0
5 *477:C *481:C 0
6 *95:8 *96:8 0
7 *95:8 *154:42 0
8 *95:8 *207:52 0
9 *477:A *95:8 0
10 *77:22 *477:C 8.01995e-05
*RES
1 *476:X *95:8 41.5862 
2 *95:8 *477:C 40.5356 
*END

*D_NET *96 0.000889707
*CONN
*I *482:C I *D sg13g2_nor4_1
*I *477:Y O *D sg13g2_nor3_1
*CAP
1 *482:C 0
2 *477:Y 0.000213574
3 *96:8 0.000213574
4 *96:8 *100:8 0.00023158
5 *96:8 *151:18 0.00023098
6 *96:8 *154:42 0
7 *96:8 *207:48 0
8 *96:8 *207:52 0
9 *95:8 *96:8 0
*RES
1 *477:Y *96:8 42.8222 
2 *96:8 *482:C 40 
*END

*D_NET *97 0.0031542
*CONN
*I *490:A I *D sg13g2_nand2_1
*I *479:A I *D sg13g2_nor2b_1
*I *478:Y O *D sg13g2_o21ai_1
*CAP
1 *490:A 0
2 *479:A 0
3 *478:Y 0.000258882
4 *97:22 0.000379464
5 *97:12 0.000508185
6 *97:8 0.000387603
7 *97:8 *478:B1 0.000128306
8 *97:8 *142:31 0
9 *97:8 *161:44 0.000712625
10 *97:8 *207:75 0.000180721
11 *97:22 *491:B1 1.54556e-05
12 *97:22 *102:10 2.14736e-05
13 *455:A2 *97:12 0
14 *65:23 *97:12 0.000111685
15 *65:38 *97:8 0
16 *69:20 *97:22 0
17 *69:24 *97:12 0.000176396
18 *69:30 *97:8 0
19 *74:8 *97:8 0
20 *75:10 *97:22 0
21 *77:22 *97:22 0.000273399
*RES
1 *478:Y *97:8 43.811 
2 *97:8 *97:12 21.4008 
3 *97:12 *97:22 43.4608 
4 *97:22 *479:A 20 
5 *97:12 *490:A 20 
*END

*D_NET *98 0.0022096
*CONN
*I *481:B I *D sg13g2_nor3_1
*I *484:B1 I *D sg13g2_a22oi_1
*I *479:Y O *D sg13g2_nor2b_1
*CAP
1 *481:B 0.000214609
2 *484:B1 0.000247807
3 *479:Y 0.000127904
4 *98:8 0.00059032
5 *481:B *481:C 1.54285e-05
6 *481:B *110:16 0
7 *484:B1 *484:B2 0
8 *484:B1 *484:A1 0.000207229
9 *484:B1 *102:10 5.06899e-05
10 *98:8 *197:108 0
11 *98:8 *209:65 0
12 *477:C *481:B 0
13 *41:60 *481:B 0.000106392
14 *41:60 *98:8 0.000392397
15 *63:35 *481:B 0.00012816
16 *63:35 *484:B1 0
17 *63:35 *98:8 0.000128662
18 *65:6 *484:B1 0
*RES
1 *479:Y *98:8 41.8334 
2 *98:8 *484:B1 42.5802 
3 *98:8 *481:B 42.2145 
*END

*D_NET *99 0.00531376
*CONN
*I *481:C I *D sg13g2_nor3_1
*I *499:B I *D sg13g2_nor3_1
*I *522:A1 I *D sg13g2_o21ai_1
*I *480:Y O *D sg13g2_nor2_1
*CAP
1 *481:C 0.00102017
2 *499:B 0
3 *522:A1 3.92059e-05
4 *480:Y 0
5 *99:31 0.000203583
6 *99:10 0.000836029
7 *99:4 0.00161341
8 *481:C *480:B 0.000112314
9 *481:C *497:A 4.77425e-05
10 *481:C *497:B 0
11 *481:C *503:A2 4.77702e-05
12 *481:C *110:16 0
13 *481:C *113:12 4.75151e-05
14 *481:C *197:93 0
15 *522:A1 *522:B1 0
16 *522:A1 *139:10 0
17 *99:10 *449:A 0
18 *99:10 *501:A1 4.46623e-05
19 *99:10 *501:A2 0.000143526
20 *99:10 *502:B 0
21 *99:10 *561:A 0
22 *99:10 *119:10 0
23 *99:10 *139:10 0
24 *99:10 *208:61 0.000272938
25 *99:31 *499:A 0
26 *99:31 *501:A1 1.8481e-05
27 *99:31 *138:8 0.000126325
28 *99:31 *143:27 0
29 *99:31 *201:34 0.000288172
30 *99:31 *201:45 0.000180812
31 *468:A2 *481:C 0
32 *477:A *481:C 0
33 *477:C *481:C 0
34 *481:B *481:C 1.54285e-05
35 *76:33 *481:C 0
36 *76:33 *99:10 0.000175565
37 *83:18 *522:A1 0
38 *87:12 *481:C 8.01116e-05
*RES
1 *480:Y *99:4 20 
2 *99:4 *99:10 6.1594 
3 *99:10 *522:A1 20.5768 
4 *99:10 *99:31 42.7398 
5 *99:31 *499:B 20 
6 *99:4 *481:C 29.579 
*END

*D_NET *100 0.000432199
*CONN
*I *482:D I *D sg13g2_nor4_1
*I *481:Y O *D sg13g2_nor3_1
*CAP
1 *482:D 0
2 *481:Y 0.00010031
3 *100:8 0.00010031
4 *100:8 *207:52 0
5 *96:8 *100:8 0.00023158
*RES
1 *481:Y *100:8 41.0918 
2 *100:8 *482:D 40 
*END

*D_NET *101 0.00229515
*CONN
*I *483:B2 I *D sg13g2_a22oi_1
*I *482:Y O *D sg13g2_nor4_1
*CAP
1 *483:B2 0.0002837
2 *482:Y 0.0003613
3 *101:14 0.000657717
4 *101:8 0.000735317
5 *483:B2 *216:10 4.79124e-05
6 *101:8 *470:A 0
7 *101:8 *151:18 0
8 *101:8 *154:42 0
9 *101:8 *207:48 0
10 *101:14 *200:14 0
11 *101:14 *209:67 0
12 *101:14 *209:75 0
13 *472:B1 *483:B2 0
14 *474:B *483:B2 0.000209198
15 *483:B1 *483:B2 0
16 *29:63 *483:B2 0
17 *61:8 *101:8 0
*RES
1 *482:Y *101:8 42.8222 
2 *101:8 *101:14 43.7801 
3 *101:14 *483:B2 42.6986 
*END

*D_NET *102 0.000865629
*CONN
*I *491:A2 I *D sg13g2_o21ai_1
*I *484:Y O *D sg13g2_a22oi_1
*CAP
1 *491:A2 2.84713e-05
2 *484:Y 0.000195775
3 *102:10 0.000224247
4 *491:A2 *491:B1 1.54008e-05
5 *102:10 *484:B2 4.79124e-05
6 *102:10 *484:A1 0
7 *102:10 *197:108 0
8 *102:10 *211:36 0
9 *484:B1 *102:10 5.06899e-05
10 *65:6 *102:10 0
11 *65:23 *102:10 0
12 *77:8 *102:10 0.000233917
13 *77:12 *491:A2 3.23417e-05
14 *77:22 *491:A2 1.54008e-05
15 *97:22 *102:10 2.14736e-05
*RES
1 *484:Y *102:10 42.0909 
2 *102:10 *491:A2 40.3193 
*END

*D_NET *103 0.00104166
*CONN
*I *486:B I *D sg13g2_nor2_1
*I *485:Y O *D sg13g2_a221oi_1
*CAP
1 *486:B 0.000296348
2 *485:Y 0.000296348
3 *486:B *444:B 0
4 *486:B *487:A 0
5 *486:B *104:10 0.000103553
6 *63:10 *486:B 8.80462e-05
7 *63:14 *486:B 0.000129227
8 *63:35 *486:B 8.03692e-05
9 *78:31 *486:B 4.77702e-05
*RES
1 *485:Y *486:B 43.1518 
*END

*D_NET *104 0.00105181
*CONN
*I *492:B I *D sg13g2_nor4_1
*I *486:Y O *D sg13g2_nor2_1
*CAP
1 *492:B 7.73352e-05
2 *486:Y 0.000274074
3 *104:10 0.000351409
4 *104:10 *487:A 0
5 *104:10 *106:10 0
6 *104:10 *109:10 0.000182525
7 *104:10 *142:31 0
8 *486:B *104:10 0.000103553
9 *39:46 *492:B 1.54008e-05
10 *63:14 *104:10 4.75151e-05
11 *63:46 *104:10 0
*RES
1 *486:Y *104:10 42.7398 
2 *104:10 *492:B 40.7519 
*END

*D_NET *105 0.000459988
*CONN
*I *488:A2 I *D sg13g2_a21oi_1
*I *487:Y O *D sg13g2_nand3_1
*CAP
1 *488:A2 0.000229994
2 *487:Y 0.000229994
3 *488:A2 *487:A 0
4 *488:A2 *151:36 0
5 *487:B *488:A2 0
*RES
1 *487:Y *488:A2 41.8449 
*END

*D_NET *106 0.000698046
*CONN
*I *492:C I *D sg13g2_nor4_1
*I *488:Y O *D sg13g2_a21oi_1
*CAP
1 *492:C 0
2 *488:Y 0.00018148
3 *106:10 0.00018148
4 *106:10 *488:B1 4.77425e-05
5 *29:37 *106:10 0
6 *63:46 *106:10 0.000287342
7 *104:10 *106:10 0
*RES
1 *488:Y *106:10 42.1218 
2 *106:10 *492:C 40 
*END

*D_NET *107 0.00409568
*CONN
*I *490:B I *D sg13g2_nand2_1
*I *494:B1 I *D sg13g2_o21ai_1
*I *489:Y O *D sg13g2_nor2b_1
*CAP
1 *490:B 0
2 *494:B1 0.000531065
3 *489:Y 0
4 *107:37 0.000178474
5 *107:31 0.000915724
6 *107:4 0.00126832
7 *494:B1 *466:A 8.01116e-05
8 *494:B1 *466:B 0
9 *494:B1 *489:A 8.01116e-05
10 *494:B1 *494:A2 0
11 *494:B1 *197:93 0
12 *494:B1 *203:8 0
13 *494:B1 *209:8 0
14 *494:B1 *209:18 0.000144257
15 *494:B1 *209:52 0
16 *107:31 *447:B 4.77425e-05
17 *107:31 *197:93 0
18 *107:31 *209:52 0
19 *107:31 *211:25 0.000337307
20 *107:31 *211:36 0.000338475
21 *107:37 *161:44 0
22 *107:37 *211:36 0
23 *455:A2 *107:31 0
24 *494:A1 *494:B1 0
25 *66:23 *107:31 0
26 *68:54 *107:31 0.000174097
27 *69:20 *107:31 0
28 *75:10 *107:37 0
*RES
1 *489:Y *107:4 20 
2 *107:4 *494:B1 25.2633 
3 *107:4 *107:31 47.3439 
4 *107:31 *107:37 41.5862 
5 *107:37 *490:B 20 
*END

*D_NET *108 0.000339185
*CONN
*I *491:B1 I *D sg13g2_o21ai_1
*I *490:Y O *D sg13g2_nand2_1
*CAP
1 *491:B1 0.000154164
2 *490:Y 0.000154164
3 *491:A2 *491:B1 1.54008e-05
4 *65:23 *491:B1 0
5 *77:22 *491:B1 0
6 *97:22 *491:B1 1.54556e-05
*RES
1 *490:Y *491:B1 41.6274 
*END

*D_NET *109 0.00147519
*CONN
*I *492:D I *D sg13g2_nor4_1
*I *491:Y O *D sg13g2_o21ai_1
*CAP
1 *492:D 0
2 *491:Y 0.000558487
3 *109:10 0.000558487
4 *109:10 *142:31 0
5 *63:46 *109:10 0
6 *65:23 *109:10 0.000175693
7 *65:38 *109:10 0
8 *69:30 *109:10 0
9 *77:8 *109:10 0
10 *78:31 *109:10 0
11 *104:10 *109:10 0.000182525
*RES
1 *491:Y *109:10 44.9028 
2 *109:10 *492:D 40 
*END

*D_NET *110 0.00390951
*CONN
*I *503:B1 I *D sg13g2_a21oi_1
*I *492:Y O *D sg13g2_nor4_1
*CAP
1 *503:B1 0
2 *492:Y 0.00154726
3 *110:16 0.00154726
4 *110:16 *401:A 0.000273652
5 *110:16 *458:A_N 0
6 *110:16 *495:A 0.000112541
7 *110:16 *502:A 0
8 *110:16 *113:12 4.75151e-05
9 *481:B *110:16 0
10 *481:C *110:16 0
11 *495:B *110:16 4.77425e-05
12 *39:46 *110:16 0
13 *63:35 *110:16 0.000333542
14 *88:33 *110:16 0
*RES
1 *492:Y *110:16 34.5504 
2 *110:16 *503:B1 20 
*END

*D_NET *111 0.00210198
*CONN
*I *494:A2 I *D sg13g2_o21ai_1
*I *518:A2 I *D sg13g2_o21ai_1
*I *493:Y O *D sg13g2_a21oi_1
*CAP
1 *494:A2 0.000462346
2 *518:A2 0.000313517
3 *493:Y 0
4 *111:6 0.000775862
5 *494:A2 *462:B1 0
6 *494:A2 *553:A 4.77425e-05
7 *494:A2 *144:33 0
8 *518:A2 *518:B1 1.54285e-05
9 *518:A2 *518:A1 0.000240569
10 *518:A2 *523:A2 0
11 *518:A2 *144:33 0
12 *518:A2 *210:55 0
13 *494:B1 *494:A2 0
14 *494:A1 *494:A2 1.54285e-05
15 *68:8 *494:A2 0.000231089
16 *71:8 *494:A2 0
17 *71:25 *494:A2 0
*RES
1 *493:Y *111:6 40 
2 *111:6 *518:A2 42.9561 
3 *111:6 *494:A2 44.5217 
*END

*D_NET *112 0.00198947
*CONN
*I *503:A1 I *D sg13g2_a21oi_1
*I *494:Y O *D sg13g2_o21ai_1
*CAP
1 *503:A1 0
2 *494:Y 0.000478079
3 *112:12 0.000478079
4 *112:12 *120:8 7.45698e-05
5 *112:12 *139:10 0
6 *112:12 *149:25 0
7 *112:12 *197:19 0
8 *112:12 *209:26 0.000230691
9 *449:B *112:12 0.000179553
10 *67:10 *112:12 0.000548498
11 *68:8 *112:12 0
*RES
1 *494:Y *112:12 45.3148 
2 *112:12 *503:A1 40 
*END

*D_NET *113 0.00143603
*CONN
*I *497:B I *D sg13g2_nor3_1
*I *495:Y O *D sg13g2_nor2_1
*CAP
1 *497:B 0.00027924
2 *495:Y 0.000173586
3 *113:12 0.000452826
4 *497:B *497:A 0
5 *497:B *497:C 0.000435347
6 *113:12 *495:A 0
7 *113:12 *203:23 0
8 *481:C *497:B 0
9 *481:C *113:12 4.75151e-05
10 *110:16 *113:12 4.75151e-05
*RES
1 *495:Y *113:12 41.7304 
2 *113:12 *497:B 42.9149 
*END

*D_NET *114 0.00266123
*CONN
*I *497:C I *D sg13g2_nor3_1
*I *496:Y O *D sg13g2_a21oi_1
*CAP
1 *497:C 0.000269198
2 *496:Y 0.000397729
3 *114:14 0.000666926
4 *497:C *197:93 0.000176018
5 *114:14 *495:A 0.000283593
6 *114:14 *496:A1 7.9225e-05
7 *114:14 *197:93 0
8 *114:14 *209:18 0
9 *468:B2 *114:14 0.000111685
10 *468:B1 *497:C 0.000241512
11 *497:B *497:C 0.000435347
12 *85:8 *114:14 0
*RES
1 *496:Y *114:14 44.0582 
2 *114:14 *497:C 43.1312 
*END

*D_NET *115 0.00306204
*CONN
*I *502:A I *D sg13g2_nor2_1
*I *497:Y O *D sg13g2_nor3_1
*CAP
1 *502:A 0.000451791
2 *497:Y 0.000183657
3 *115:8 0.000635449
4 *115:8 *162:24 0.000394255
5 *115:8 *203:23 0
6 *442:A2 *502:A 0.000790951
7 *88:33 *502:A 0.000532612
8 *88:33 *115:8 7.33225e-05
9 *110:16 *502:A 0
*RES
1 *497:Y *115:8 42.0806 
2 *115:8 *502:A 45.2942 
*END

*D_NET *116 0.00250103
*CONN
*I *499:C I *D sg13g2_nor3_1
*I *516:C I *D sg13g2_nand3_1
*I *498:Y O *D sg13g2_nor2_1
*CAP
1 *499:C 0
2 *516:C 0.000230548
3 *498:Y 0.00100059
4 *116:28 0.000770041
5 *516:C *516:B 0
6 *516:C *517:A 0
7 *516:C *208:72 0
8 *516:C *213:49 0
9 *116:28 *143:27 0
10 *116:28 *199:18 0
11 *116:28 *199:31 0
12 *116:28 *201:34 0
13 *116:28 *208:20 0.000499854
14 *116:28 *208:29 0
15 *116:28 *208:61 0
*RES
1 *498:Y *516:C 42.2666 
2 *498:Y *116:28 47.1585 
3 *116:28 *499:C 40 
*END

*D_NET *117 0.00114911
*CONN
*I *501:A1 I *D sg13g2_o21ai_1
*I *499:Y O *D sg13g2_nor3_1
*CAP
1 *501:A1 3.02592e-05
2 *499:Y 0.000347324
3 *117:16 0.000377583
4 *501:A1 *501:A2 4.77425e-05
5 *117:16 *499:A 8.00764e-05
6 *117:16 *138:8 7.48209e-05
7 *117:16 *143:27 0.00012816
8 *117:16 *206:14 0
9 *84:16 *117:16 0
10 *99:10 *501:A1 4.46623e-05
11 *99:31 *501:A1 1.8481e-05
*RES
1 *499:Y *117:16 43.5741 
2 *117:16 *501:A1 40.3193 
*END

*D_NET *118 0.00145025
*CONN
*I *501:A2 I *D sg13g2_o21ai_1
*I *500:Y O *D sg13g2_nand3_1
*CAP
1 *501:A2 0.00016151
2 *500:Y 0.000278386
3 *118:8 0.000439896
4 *501:A2 *201:66 1.54008e-05
5 *501:A2 *201:77 0.000129562
6 *118:8 *204:44 0
7 *118:8 *206:58 0
8 *501:A1 *501:A2 4.77425e-05
9 *76:10 *118:8 0.000234224
10 *99:10 *501:A2 0.000143526
*RES
1 *500:Y *118:8 42.575 
2 *118:8 *501:A2 41.6171 
*END

*D_NET *119 0.00294963
*CONN
*I *502:B I *D sg13g2_nor2_1
*I *501:Y O *D sg13g2_o21ai_1
*CAP
1 *502:B 0.000359585
2 *501:Y 0.000297834
3 *119:10 0.000657419
4 *502:B *206:10 0.000175693
5 *119:10 *181:8 0.000337442
6 *119:10 *201:66 1.54008e-05
7 *119:10 *201:77 0.000144771
8 *119:10 *204:44 0.000231845
9 *442:A2 *502:B 0.000497796
10 *500:C *119:10 0.000231845
11 *76:33 *502:B 0
12 *99:10 *502:B 0
13 *99:10 *119:10 0
*RES
1 *501:Y *119:10 43.5741 
2 *119:10 *502:B 43.7801 
*END

*D_NET *120 0.000712205
*CONN
*I *503:A2 I *D sg13g2_a21oi_1
*I *502:Y O *D sg13g2_nor2_1
*CAP
1 *503:A2 3.02958e-05
2 *502:Y 0.000147222
3 *120:8 0.000177518
4 *120:8 *385:B 0
5 *120:8 *187:8 0.00023483
6 *481:C *503:A2 4.77702e-05
7 *67:10 *120:8 0
8 *112:12 *120:8 7.45698e-05
*RES
1 *502:Y *120:8 41.5862 
2 *120:8 *503:A2 40.3193 
*END

*D_NET *121 0.000304895
*CONN
*I *505:B1 I *D sg13g2_o21ai_1
*I *504:X O *D sg13g2_and2_1
*CAP
1 *505:B1 0.000122611
2 *504:X 0.000122611
3 *505:B1 *122:8 2.20968e-05
4 *505:A2 *505:B1 3.75762e-05
*RES
1 *504:X *505:B1 41.424 
*END

*D_NET *122 0.00174364
*CONN
*I *506:A2 I *D sg13g2_a21oi_1
*I *507:A2 I *D sg13g2_o21ai_1
*I *505:Y O *D sg13g2_o21ai_1
*CAP
1 *506:A2 0
2 *507:A2 0
3 *505:Y 0.000191812
4 *122:18 0.000133457
5 *122:8 0.000325269
6 *122:8 *524:B1 0.000128508
7 *122:8 *197:55 1.54008e-05
8 *122:18 *507:B1 4.77425e-05
9 *122:18 *524:B1 4.77699e-05
10 *122:18 *181:10 0.000394566
11 *122:18 *197:55 0.000437019
12 *122:18 *219:29 0
13 *505:B1 *122:8 2.20968e-05
*RES
1 *505:Y *122:8 21.751 
2 *122:8 *122:18 42.472 
3 *122:18 *507:A2 20 
4 *122:8 *506:A2 20 
*END

*D_NET *123 0.000297046
*CONN
*I *507:B1 I *D sg13g2_o21ai_1
*I *506:Y O *D sg13g2_a21oi_1
*CAP
1 *507:B1 0.000124652
2 *506:Y 0.000124652
3 *507:B1 *506:B1 0
4 *122:18 *507:B1 4.77425e-05
*RES
1 *506:Y *507:B1 41.3802 
*END

*D_NET *124 0.00151425
*CONN
*I *524:A1 I *D sg13g2_a21oi_1
*I *507:Y O *D sg13g2_o21ai_1
*CAP
1 *524:A1 0.000285588
2 *507:Y 0.000138116
3 *124:8 0.000423704
4 *524:A1 *524:A2 1.54556e-05
5 *524:A1 *524:B1 0
6 *524:A1 *201:8 0
7 *124:8 *181:10 0.000447182
8 *39:8 *124:8 7.51285e-05
9 *84:26 *124:8 0.000129078
*RES
1 *507:Y *124:8 42.0806 
2 *124:8 *524:A1 42.4823 
*END

*D_NET *125 0.000361395
*CONN
*I *509:B I *D sg13g2_or2_1
*I *508:Y O *D sg13g2_a21oi_1
*CAP
1 *509:B 0.00016961
2 *508:Y 0.00016961
3 *509:B *508:B1 0
4 *509:B *126:12 0
5 *509:B *210:18 0
6 *509:B *212:43 0
7 *509:B *212:51 2.21754e-05
*RES
1 *508:Y *509:B 41.5347 
*END

*D_NET *126 0.00154755
*CONN
*I *513:A1 I *D sg13g2_o21ai_1
*I *519:B I *D sg13g2_nor2_1
*I *509:X O *D sg13g2_or2_1
*CAP
1 *513:A1 0
2 *519:B 0
3 *509:X 0.000202528
4 *126:18 0.000227313
5 *126:12 0.000429842
6 *126:12 *383:B 0
7 *126:12 *513:A2 1.54008e-05
8 *126:12 *204:74 0
9 *126:12 *212:51 0
10 *126:12 *213:29 0
11 *126:12 *213:33 0
12 *126:18 *162:14 0
13 *126:18 *204:74 0.00044185
14 *126:18 *215:51 0.000230615
15 *509:B *126:12 0
16 *33:10 *126:18 0
17 *88:12 *126:12 0
*RES
1 *509:X *126:12 22.2042 
2 *126:12 *126:18 42.575 
3 *126:18 *519:B 20 
4 *126:12 *513:A1 20 
*END

*D_NET *127 0.000379165
*CONN
*I *513:A2 I *D sg13g2_o21ai_1
*I *510:X O *D sg13g2_and3_1
*CAP
1 *513:A2 0.000174182
2 *510:X 0.000174182
3 *513:A2 *460:B 0
4 *513:A2 *130:10 0
5 *513:A2 *204:74 1.54008e-05
6 *513:A2 *213:29 0
7 *79:20 *513:A2 0
8 *126:12 *513:A2 1.54008e-05
*RES
1 *510:X *513:A2 41.6171 
*END

*D_NET *128 0.00156819
*CONN
*I *512:B1 I *D sg13g2_o21ai_1
*I *511:Y O *D sg13g2_o21ai_1
*CAP
1 *512:B1 0.000377139
2 *511:Y 0.000377139
3 *512:B1 *453:A2 0
4 *512:B1 *514:A2 1.49483e-05
5 *512:B1 *215:12 0
6 *512:B1 *217:8 0.000112426
7 *512:B1 *217:10 0
8 *512:A2 *512:B1 0.000307126
9 *72:16 *512:B1 0.000379412
*RES
1 *511:Y *512:B1 43.9964 
*END

*D_NET *129 0.00105169
*CONN
*I *514:A2 I *D sg13g2_a21oi_1
*I *512:Y O *D sg13g2_o21ai_1
*CAP
1 *514:A2 0.000478329
2 *512:Y 0.000478329
3 *514:A2 *453:B1 0
4 *514:A2 *157:26 0
5 *514:A2 *208:119 0
6 *514:A2 *215:36 8.00842e-05
7 *512:B1 *514:A2 1.49483e-05
*RES
1 *512:Y *514:A2 44.3466 
*END

*D_NET *130 0.00176611
*CONN
*I *514:B1 I *D sg13g2_a21oi_1
*I *513:Y O *D sg13g2_o21ai_1
*CAP
1 *514:B1 0.000221204
2 *513:Y 0.000244975
3 *130:10 0.000466179
4 *514:B1 *475:A_N 0
5 *514:B1 *162:14 4.77425e-05
6 *514:B1 *208:106 0
7 *130:10 *162:14 0.000436762
8 *130:10 *204:74 1.54008e-05
9 *130:10 *215:51 0.000333844
10 *475:C *514:B1 0
11 *513:A2 *130:10 0
12 *68:38 *514:B1 0
*RES
1 *513:Y *130:10 42.8634 
2 *130:10 *514:B1 42.1836 
*END

*D_NET *131 0.00499686
*CONN
*I *515:B I *D sg13g2_nor2_1
*I *514:Y O *D sg13g2_a21oi_1
*CAP
1 *515:B 0
2 *514:Y 0
3 *131:14 0
4 *131:10 0.00154861
5 *131:6 0.00154861
6 *131:10 *142:14 0.000770215
7 *131:10 *144:20 0
8 *131:10 *204:36 0
9 *131:10 *204:53 0
10 *131:10 *217:20 0.00112943
*RES
1 *514:Y *131:6 40 
2 *131:6 *131:10 37.407 
3 *131:10 *131:14 40 
4 *131:14 *515:B 20 
*END

*D_NET *132 0.000275268
*CONN
*I *524:A2 I *D sg13g2_a21oi_1
*I *515:Y O *D sg13g2_nor2_1
*CAP
1 *524:A2 0.000129906
2 *515:Y 0.000129906
3 *524:A2 *515:A 0
4 *524:A1 *524:A2 1.54556e-05
*RES
1 *515:Y *524:A2 41.6274 
*END

*D_NET *133 0.000346781
*CONN
*I *517:B I *D sg13g2_and2_1
*I *516:Y O *D sg13g2_nand3_1
*CAP
1 *517:B 0.000150221
2 *516:Y 0.000150221
3 *517:B *516:B 0
4 *517:B *517:A 4.63397e-05
*RES
1 *516:Y *517:B 41.6274 
*END

*D_NET *134 0.000509223
*CONN
*I *518:B1 I *D sg13g2_o21ai_1
*I *517:X O *D sg13g2_and2_1
*CAP
1 *518:B1 3.23549e-05
2 *517:X 9.90137e-05
3 *134:8 0.000131369
4 *518:B1 *523:A2 0
5 *134:8 *144:33 0
6 *134:8 *213:49 0.000231058
7 *518:A2 *518:B1 1.54285e-05
*RES
1 *517:X *134:8 41.0918 
2 *134:8 *518:B1 40.3193 
*END

*D_NET *135 0.00027163
*CONN
*I *523:A1 I *D sg13g2_a21oi_1
*I *518:Y O *D sg13g2_o21ai_1
*CAP
1 *523:A1 0.000120387
2 *518:Y 0.000120387
3 *523:A1 *523:A2 1.54556e-05
4 *523:A1 *524:B1 1.54008e-05
5 *505:A2 *523:A1 0
*RES
1 *518:Y *523:A1 41.3802 
*END

*D_NET *136 0.000683455
*CONN
*I *520:A2 I *D sg13g2_a21oi_1
*I *519:Y O *D sg13g2_nor2_1
*CAP
1 *520:A2 0.000157402
2 *519:Y 0.000157402
3 *520:A2 *520:A1 0.00014431
4 *520:A2 *204:74 0
5 *520:A2 *208:93 1.54008e-05
6 *520:A2 *208:106 0.000208941
*RES
1 *519:Y *520:A2 41.751 
*END

*D_NET *137 0.00178547
*CONN
*I *523:A2 I *D sg13g2_a21oi_1
*I *520:Y O *D sg13g2_a21oi_1
*CAP
1 *523:A2 0.000705341
2 *520:Y 0.000705341
3 *523:A2 *142:10 0
4 *523:A2 *208:93 0
5 *523:A2 *210:55 4.35199e-05
6 *505:A2 *523:A2 0.000143582
7 *518:B1 *523:A2 0
8 *518:A2 *523:A2 0
9 *523:A1 *523:A2 1.54556e-05
10 *68:27 *523:A2 6.4375e-05
11 *68:38 *523:A2 0.000107853
*RES
1 *520:Y *523:A2 47.1585 
*END

*D_NET *138 0.000769698
*CONN
*I *522:A2 I *D sg13g2_o21ai_1
*I *521:Y O *D sg13g2_nand2_1
*CAP
1 *522:A2 0
2 *521:Y 0.000219988
3 *138:8 0.000219988
4 *138:8 *201:45 0
5 *138:8 *201:66 0.000128576
6 *83:18 *138:8 0
7 *99:31 *138:8 0.000126325
8 *117:16 *138:8 7.48209e-05
*RES
1 *521:Y *138:8 42.3278 
2 *138:8 *522:A2 40 
*END

*D_NET *139 0.00239445
*CONN
*I *523:B1 I *D sg13g2_a21oi_1
*I *522:Y O *D sg13g2_o21ai_1
*CAP
1 *523:B1 0
2 *522:Y 0.000750078
3 *139:10 0.000750078
4 *139:10 *522:B1 1.54285e-05
5 *139:10 *143:27 8.01995e-05
6 *139:10 *144:33 0
7 *139:10 *144:39 0.000340811
8 *139:10 *144:52 0.000234224
9 *139:10 *208:61 0
10 *139:10 *213:49 0
11 *139:10 *214:97 1.54008e-05
12 *449:B *139:10 0
13 *522:A1 *139:10 0
14 *68:8 *139:10 0
15 *84:8 *139:10 0.000208227
16 *99:10 *139:10 0
17 *112:12 *139:10 0
*RES
1 *522:Y *139:10 47.5602 
2 *139:10 *523:B1 40 
*END

*D_NET *140 0.00263949
*CONN
*I *524:B1 I *D sg13g2_a21oi_1
*I *523:Y O *D sg13g2_a21oi_1
*CAP
1 *524:B1 0.00096708
2 *523:Y 0.00096708
3 *524:B1 *143:27 0.000241747
4 *524:B1 *197:55 0
5 *524:B1 *201:8 0
6 *524:B1 *208:20 4.77425e-05
7 *505:A2 *524:B1 0
8 *523:A1 *524:B1 1.54008e-05
9 *524:A1 *524:B1 0
10 *39:12 *524:B1 0.000176279
11 *39:23 *524:B1 4.78853e-05
12 *122:8 *524:B1 0.000128508
13 *122:18 *524:B1 4.77699e-05
*RES
1 *523:Y *524:B1 49.1052 
*END

*D_NET *141 0.00298649
*CONN
*I *531:A2 I *D sg13g2_a21oi_1
*I *528:C I *D sg13g2_nor3_1
*I *527:Y O *D sg13g2_nor2_1
*CAP
1 *531:A2 0.000468889
2 *528:C 0.000180574
3 *527:Y 0.000339845
4 *141:10 0.000649464
5 *141:8 0.000339845
6 *528:C *407:A1 0
7 *528:C *528:A 0
8 *528:C *191:10 0
9 *528:C *200:51 0.000209756
10 *531:A2 *407:A1 0
11 *531:A2 *530:A2 0.000112541
12 *531:A2 *150:31 0
13 *531:A2 *156:55 0.000177367
14 *531:A2 *200:51 8.00842e-05
15 *531:A2 *200:66 0
16 *141:8 *392:A 0
17 *141:8 *392:B 0
18 *141:8 *156:36 0
19 *141:8 *159:52 0
20 *141:8 *191:10 0
21 *141:8 *225:8 0.000127878
22 *527:A *141:8 7.53184e-05
23 *531:A1 *531:A2 0.000224927
*RES
1 *527:Y *141:8 43.0694 
2 *141:8 *141:10 20 
3 *141:10 *528:C 21.9982 
4 *141:10 *531:A2 24.8822 
*END

*D_NET *142 0.011011
*CONN
*I *495:A I *D sg13g2_nor2_1
*I *553:A I *D sg13g2_buf_1
*I *487:A I *D sg13g2_nand3_1
*I *512:A1 I *D sg13g2_o21ai_1
*I *374:Y O *D sg13g2_inv_1
*CAP
1 *495:A 0.000495381
2 *553:A 2.99958e-05
3 *487:A 0.000114534
4 *512:A1 0
5 *374:Y 0.000300574
6 *142:50 0.000340145
7 *142:42 0.000980312
8 *142:31 0.00120801
9 *142:20 8.12631e-05
10 *142:14 0.00200379
11 *142:10 0.00130441
12 *495:A *209:18 0.000234282
13 *142:10 *208:93 0
14 *142:10 *210:45 1.54008e-05
15 *142:14 *157:14 0.000113387
16 *142:14 *159:22 0
17 *142:14 *204:53 0
18 *142:14 *217:20 0
19 *142:31 *486:A 0
20 *142:31 *157:14 0.000427099
21 *142:31 *157:42 0
22 *142:31 *157:57 0
23 *142:31 *214:70 0
24 *142:31 *214:89 0
25 *142:31 *215:8 0
26 *142:31 *217:53 0
27 *142:42 *204:57 0
28 *142:50 *180:19 0
29 *142:50 *204:53 0.00037416
30 *463:B *495:A 0.000316848
31 *463:B *142:42 2.14736e-05
32 *486:B *487:A 0
33 *488:A2 *487:A 0
34 *494:A2 *553:A 4.77425e-05
35 *523:A2 *142:10 0
36 *29:37 *487:A 0.000112683
37 *63:10 *142:31 0.00012816
38 *64:14 *142:31 0.00034239
39 *65:38 *142:31 0
40 *68:8 *142:50 0
41 *78:16 *495:A 0
42 *81:8 *142:42 0.00012601
43 *82:8 *495:A 0.000335043
44 *88:12 *142:10 7.33256e-05
45 *88:12 *142:42 0.000318191
46 *88:33 *495:A 0
47 *97:8 *142:31 0
48 *104:10 *487:A 0
49 *104:10 *142:31 0
50 *109:10 *142:31 0
51 *110:16 *495:A 0.000112541
52 *113:12 *495:A 0
53 *114:14 *495:A 0.000283593
54 *131:10 *142:14 0.000770215
*RES
1 *374:Y *142:10 42.3999 
2 *142:10 *142:14 29.4039 
3 *142:14 *142:20 40.5974 
4 *142:20 *512:A1 20 
5 *142:14 *142:31 30.6811 
6 *142:31 *487:A 41.1845 
7 *142:10 *142:42 2.3278 
8 *142:42 *142:50 42.8325 
9 *142:50 *553:A 40.3193 
10 *142:42 *495:A 46.0461 
*END

*D_NET *143 0.00293117
*CONN
*I *457:A I *D sg13g2_nor2_1
*I *467:B1 I *D sg13g2_a21oi_1
*I *375:Y O *D sg13g2_inv_1
*CAP
1 *457:A 0
2 *467:B1 0.000195784
3 *375:Y 0
4 *143:27 0.000686884
5 *143:4 0.000882668
6 *467:B1 *202:26 4.77425e-05
7 *143:27 *499:A 8.01995e-05
8 *143:27 *201:34 0
9 *143:27 *202:26 0.000111711
10 *505:A2 *143:27 0.00024172
11 *524:B1 *143:27 0.000241747
12 *71:42 *143:27 0.000234357
13 *76:10 *143:27 0
14 *83:18 *467:B1 0
15 *84:26 *143:27 0
16 *86:8 *143:27 0
17 *99:31 *143:27 0
18 *116:28 *143:27 0
19 *117:16 *143:27 0.00012816
20 *139:10 *143:27 8.01995e-05
*RES
1 *375:Y *143:4 20 
2 *143:4 *467:B1 22.1321 
3 *143:4 *143:27 47.3027 
4 *143:27 *457:A 20 
*END

*D_NET *144 0.00885777
*CONN
*I *383:A I *D sg13g2_nor2_1
*I *452:A I *D sg13g2_nand2_1
*I *414:A I *D sg13g2_nand2_1
*I *413:B I *D sg13g2_nand2_1
*I *449:A I *D sg13g2_or2_1
*I *498:B I *D sg13g2_nor2_1
*I *376:Y O *D sg13g2_inv_1
*CAP
1 *383:A 6.16236e-05
2 *452:A 0
3 *414:A 7.41756e-05
4 *413:B 0.000146883
5 *449:A 0.000287794
6 *498:B 0
7 *376:Y 5.28677e-05
8 *144:52 0.000651107
9 *144:39 0.000872481
10 *144:33 0.00059702
11 *144:20 0.000443834
12 *144:12 0.0010624
13 *144:6 0.000290674
14 *383:A *516:B 0
15 *383:A *208:93 0.000110302
16 *413:B *170:14 4.75525e-05
17 *413:B *170:42 0.00020799
18 *413:B *205:10 0.000207845
19 *414:A *438:A_N 4.77425e-05
20 *414:A *170:42 0.000234224
21 *414:A *207:23 0.000212215
22 *449:A *180:23 0
23 *449:A *197:31 0
24 *449:A *214:97 0
25 *144:12 *516:B 0
26 *144:12 *208:93 0.000141818
27 *144:20 *208:61 7.41702e-05
28 *144:33 *180:23 0
29 *144:33 *213:49 0
30 *144:33 *217:20 0
31 *144:52 *170:42 7.51285e-05
32 *144:52 *207:8 0.000128576
33 *144:52 *207:23 0.000975613
34 *144:52 *214:106 0
35 *144:52 *218:70 0.00113379
36 *494:A2 *144:33 0
37 *518:A2 *144:33 0
38 *35:27 *144:39 0
39 *35:27 *144:52 0
40 *71:8 *449:A 0
41 *71:42 *144:33 9.71404e-05
42 *71:42 *144:39 4.77699e-05
43 *76:33 *449:A 0
44 *99:10 *449:A 0
45 *131:10 *144:20 0
46 *134:8 *144:33 0
47 *139:10 *144:33 0
48 *139:10 *144:39 0.000340811
49 *139:10 *144:52 0.000234224
*RES
1 *376:Y *144:6 20.5974 
2 *144:6 *144:12 21.5656 
3 *144:12 *144:20 43.5741 
4 *144:20 *498:B 40 
5 *144:12 *144:33 24.0685 
6 *144:33 *144:39 21.9055 
7 *144:39 *449:A 42.5597 
8 *144:39 *144:52 7.519 
9 *144:52 *413:B 41.6171 
10 *144:52 *414:A 41.4111 
11 *144:33 *452:A 20 
12 *144:6 *383:A 20.7519 
*END

*D_NET *145 0.00715873
*CONN
*I *531:B1 I *D sg13g2_a21oi_1
*I *530:B1 I *D sg13g2_a21oi_1
*I *528:B I *D sg13g2_nor3_1
*I *525:A I *D sg13g2_nor2_1
*I *529:B1 I *D sg13g2_a21oi_1
*I *526:B I *D sg13g2_nor3_1
*I *439:A I *D sg13g2_nor3_1
*I *380:X O *D sg13g2_or2_1
*CAP
1 *531:B1 0.000302254
2 *530:B1 5.11217e-05
3 *528:B 0
4 *525:A 0
5 *529:B1 0
6 *526:B 0
7 *439:A 0.000136918
8 *380:X 5.35895e-05
9 *145:67 0.000659069
10 *145:58 0
11 *145:54 0.0010105
12 *145:39 0.00100503
13 *145:30 0.000477189
14 *145:23 0.000243069
15 *145:8 0.000256618
16 *439:A *526:A 0
17 *439:A *201:77 0
18 *439:A *202:44 0.000231845
19 *439:A *206:64 7.99942e-05
20 *531:B1 *156:36 0
21 *531:B1 *156:55 0.000274297
22 *531:B1 *200:66 0.000274325
23 *531:B1 *221:8 0
24 *145:8 *201:77 0
25 *145:8 *202:44 0.000179556
26 *145:23 *156:14 1.54008e-05
27 *145:30 *582:A 0
28 *145:30 *156:14 0.000257463
29 *145:39 *582:A 4.79124e-05
30 *145:39 *584:A 0
31 *145:39 *156:14 0
32 *145:39 *202:56 0
33 *145:39 *202:73 1.54008e-05
34 *145:54 *581:A 1.54008e-05
35 *145:54 *159:52 4.8158e-05
36 *145:54 *165:14 0.000145811
37 *145:54 *201:98 0.000181192
38 *145:54 *202:73 6.46834e-05
39 *145:54 *202:88 0
40 *145:67 *159:52 0.000590919
41 *145:67 *165:14 0.000541008
42 *35:33 *531:B1 0
*RES
1 *380:X *145:8 40.8446 
2 *145:8 *439:A 41.6274 
3 *145:8 *145:23 20.5356 
4 *145:23 *526:B 20 
5 *145:23 *145:30 1.8334 
6 *145:30 *529:B1 20 
7 *145:30 *145:39 2.8634 
8 *145:39 *525:A 20 
9 *145:39 *145:54 48.8374 
10 *145:54 *145:58 40 
11 *145:58 *528:B 20 
12 *145:54 *145:67 23.9964 
13 *145:67 *530:B1 40.3502 
14 *145:67 *531:B1 43.1724 
*END

*D_NET *146 0.000811732
*CONN
*I *385:A I *D sg13g2_nand2_1
*I *414:B I *D sg13g2_nand2_1
*I *381:Y O *D sg13g2_nor2_1
*CAP
1 *385:A 0.000215648
2 *414:B 0.000134893
3 *381:Y 0.000350541
4 *385:A *385:B 0
5 *385:A *415:C 0
6 *385:A *171:22 1.54008e-05
7 *385:A *206:64 0
8 *385:A *206:72 0
9 *385:A *207:42 7.98484e-05
10 *414:B *206:72 0
11 *414:B *209:85 1.54008e-05
*RES
1 *381:Y *414:B 41.2984 
2 *381:Y *385:A 41.9673 
*END

*D_NET *147 0.00708496
*CONN
*I *511:A2 I *D sg13g2_o21ai_1
*I *475:A_N I *D sg13g2_nand3b_1
*I *469:B1 I *D sg13g2_a21oi_1
*I *383:B I *D sg13g2_nor2_1
*I *382:Y O *D sg13g2_nor2_1
*CAP
1 *511:A2 0
2 *475:A_N 0.000233092
3 *469:B1 0
4 *383:B 0.000501188
5 *382:Y 0.000369721
6 *147:55 0.000689266
7 *147:22 0.00071706
8 *147:16 0.000860142
9 *147:12 0.00110044
10 *147:10 0.000369721
11 *383:B *149:8 0
12 *383:B *155:10 7.90005e-05
13 *383:B *155:38 7.91367e-05
14 *383:B *208:93 0.000612274
15 *383:B *208:106 0.000258223
16 *475:A_N *157:26 0.000124855
17 *475:A_N *162:14 0
18 *475:A_N *208:119 0
19 *475:A_N *215:51 0
20 *147:10 *213:18 0
21 *147:16 *217:20 0
22 *147:22 *447:B 0
23 *147:22 *208:106 0.000274297
24 *147:22 *215:36 0
25 *147:55 *157:14 0
26 *147:55 *215:8 0.000124547
27 *147:55 *217:20 0
28 *475:C *475:A_N 4.77702e-05
29 *511:A1 *147:55 0
30 *514:B1 *475:A_N 0
31 *31:45 *147:10 7.30101e-05
32 *72:16 *147:55 0.0001122
33 *88:12 *383:B 0.000459012
34 *126:12 *383:B 0
*RES
1 *382:Y *147:10 42.6162 
2 *147:10 *147:12 20 
3 *147:12 *147:16 23.1312 
4 *147:16 *147:22 22.1527 
5 *147:22 *383:B 25.7268 
6 *147:22 *469:B1 20 
7 *147:16 *475:A_N 42.1527 
8 *147:12 *147:55 45.7783 
9 *147:55 *511:A2 20 
*END

*D_NET *148 0.000669973
*CONN
*I *518:A1 I *D sg13g2_o21ai_1
*I *383:Y O *D sg13g2_nor2_1
*CAP
1 *518:A1 0.000190759
2 *383:Y 0.000190759
3 *518:A1 *208:72 4.78853e-05
4 *518:A1 *208:93 0
5 *518:A2 *518:A1 0.000240569
*RES
1 *383:Y *518:A1 41.9673 
*END

*D_NET *149 0.0065745
*CONN
*I *508:A1 I *D sg13g2_a21oi_1
*I *385:B I *D sg13g2_nand2_1
*I *480:B I *D sg13g2_nor2_1
*I *462:A1 I *D sg13g2_a21oi_1
*I *384:Y O *D sg13g2_o21ai_1
*CAP
1 *508:A1 6.28649e-05
2 *385:B 0.000764907
3 *480:B 6.01595e-05
4 *462:A1 5.97449e-05
5 *384:Y 0.000125338
6 *149:25 0.00138826
7 *149:12 0.00102901
8 *149:8 0.000594271
9 *385:B *187:8 0.000657241
10 *385:B *201:113 0
11 *385:B *207:42 0
12 *385:B *209:75 0
13 *385:B *216:10 0
14 *462:A1 *462:A2 0.000112458
15 *508:A1 *391:A 0
16 *508:A1 *155:10 0
17 *508:A1 *155:38 0
18 *508:A1 *212:51 8.03692e-05
19 *149:8 *155:10 0
20 *149:8 *212:51 0
21 *149:12 *496:A1 7.51285e-05
22 *149:12 *155:10 0.000494595
23 *149:12 *155:38 0
24 *149:12 *213:70 0
25 *149:25 *496:A1 0.000685197
26 *149:25 *197:19 0
27 *383:B *149:8 0
28 *385:A *385:B 0
29 *472:A2 *385:B 4.75425e-05
30 *481:C *480:B 0.000112314
31 *29:63 *385:B 0
32 *71:25 *462:A1 0.000112458
33 *76:33 *480:B 0.000112648
34 *87:12 *385:B 0
35 *88:12 *149:12 0
36 *88:14 *385:B 0
37 *88:14 *149:25 0
38 *88:33 *385:B 0
39 *112:12 *149:25 0
40 *120:8 *385:B 0
*RES
1 *384:Y *149:8 21.1021 
2 *149:8 *149:12 24.0582 
3 *149:12 *462:A1 40.7519 
4 *149:12 *149:25 5.3354 
5 *149:25 *480:B 40.7519 
6 *149:25 *385:B 48.2709 
7 *149:8 *508:A1 20.7519 
*END

*D_NET *150 0.0058661
*CONN
*I *386:A2 I *D sg13g2_a21oi_1
*I *407:A2 I *D sg13g2_o21ai_1
*I *525:B I *D sg13g2_nor2_1
*I *385:Y O *D sg13g2_nand2_1
*CAP
1 *386:A2 0.000335471
2 *407:A2 0
3 *525:B 0
4 *385:Y 0.000237377
5 *150:31 0.000300921
6 *150:23 0.00198105
7 *150:8 0.00158204
8 *386:A2 *591:A 0
9 *386:A2 *200:66 0
10 *386:A2 *202:124 4.77702e-05
11 *150:8 *201:98 0.000338542
12 *150:23 *576:A 0
13 *150:23 *577:A 0
14 *150:23 *583:A 0
15 *150:23 *595:A 0
16 *150:23 *200:40 0
17 *150:23 *200:51 0
18 *150:23 *200:66 0
19 *150:23 *201:94 4.77425e-05
20 *150:23 *201:98 0.000341549
21 *150:31 *392:A 0
22 *150:31 *407:B1 0
23 *150:31 *407:A1 1.54556e-05
24 *150:31 *156:36 0
25 *150:31 *225:8 0
26 sine_out[17] *150:23 7.94462e-05
27 sine_out[3] *150:23 0.000111828
28 *531:A2 *150:31 0
29 *35:33 *150:23 0
30 *35:33 *150:31 0.000446901
*RES
1 *385:Y *150:8 42.575 
2 *150:8 *525:B 40 
3 *150:8 *150:23 32.669 
4 *150:23 *150:31 43.5432 
5 *150:31 *407:A2 20 
6 *150:23 *386:A2 23.5844 
*END

*D_NET *151 0.00566713
*CONN
*I *389:B I *D sg13g2_nand2b_1
*I *388:A I *D sg13g2_inv_1
*I *486:A I *D sg13g2_nor2_1
*I *441:B I *D sg13g2_nor3_1
*I *481:A I *D sg13g2_nor3_1
*I *387:Y O *D sg13g2_nand2_1
*CAP
1 *389:B 0.000284383
2 *388:A 0
3 *486:A 0.000283944
4 *441:B 0
5 *481:A 0
6 *387:Y 0
7 *151:47 0.000515137
8 *151:36 0.000831393
9 *151:18 0.000270481
10 *151:12 0.000946324
11 *151:4 0.000992539
12 *389:B *397:B 0
13 *389:B *157:57 0
14 *389:B *196:8 0
15 *389:B *200:72 0
16 *389:B *222:10 0
17 *486:A *157:57 0
18 *486:A *218:39 0.000288502
19 *151:12 *387:A 0.000111761
20 *151:12 *387:B 0.000273333
21 *151:12 *488:B1 0
22 *151:12 *218:39 0
23 *151:12 *218:41 0.000386544
24 *151:12 *218:47 1.54556e-05
25 *151:18 *154:42 0
26 *151:36 *387:A 3.23694e-05
27 *151:36 *387:B 4.77702e-05
28 *151:36 *218:39 0.000103185
29 *151:47 *157:57 0
30 *151:47 *218:39 5.30319e-05
31 *488:A2 *151:36 0
32 *29:37 *486:A 0
33 *29:37 *151:36 0
34 *29:37 *151:47 0
35 *61:8 *151:18 0
36 *96:8 *151:18 0.00023098
37 *101:8 *151:18 0
38 *142:31 *486:A 0
*RES
1 *387:Y *151:4 20 
2 *151:4 *151:12 6.5611 
3 *151:12 *151:18 42.3278 
4 *151:18 *481:A 20 
5 *151:12 *441:B 20 
6 *151:4 *151:36 23.4299 
7 *151:36 *486:A 42.8222 
8 *151:36 *151:47 2.0806 
9 *151:47 *388:A 40 
10 *151:47 *389:B 42.3278 
*END

*D_NET *152 0.00103149
*CONN
*I *406:A1 I *D sg13g2_a21oi_1
*I *388:Y O *D sg13g2_inv_1
*CAP
1 *406:A1 0
2 *388:Y 0.000384991
3 *152:10 0.000384991
4 *152:10 *585:A 0
5 *152:10 *588:A 0
6 *152:10 *592:A 8.02267e-05
7 *152:10 *157:57 0
8 *152:10 *200:100 0.00018128
9 *152:10 *209:123 0
10 *152:10 *222:10 0
*RES
1 *388:Y *152:10 43.9758 
2 *152:10 *406:A1 40 
*END

*D_NET *153 0.00203222
*CONN
*I *398:B1 I *D sg13g2_o21ai_1
*I *395:B1 I *D sg13g2_a21oi_1
*I *403:B1 I *D sg13g2_o21ai_1
*I *389:Y O *D sg13g2_nand2b_1
*CAP
1 *398:B1 0
2 *395:B1 0
3 *403:B1 0.000281275
4 *389:Y 7.54883e-05
5 *153:38 5.76438e-05
6 *153:14 0.000544014
7 *153:8 0.000395871
8 *403:B1 *395:A2 0
9 *403:B1 *403:A1 0
10 *403:B1 *223:8 8.00424e-05
11 *153:8 *398:A1 1.54008e-05
12 *153:8 *587:A 0
13 *153:8 *165:37 0
14 *153:8 *222:10 0
15 *153:14 *398:A1 0.00020871
16 *153:14 *403:A1 0
17 *153:14 *585:A 0
18 *153:14 *165:37 0
19 *153:38 *222:10 0
20 *153:38 *223:16 0.00018128
21 *531:A1 *403:B1 0.000144726
22 *531:A1 *153:14 4.77702e-05
23 *35:37 *403:B1 0
*RES
1 *389:Y *153:8 20.8858 
2 *153:8 *153:14 2.7192 
3 *153:14 *403:B1 23.1312 
4 *153:14 *395:B1 20 
5 *153:8 *153:38 40.8446 
6 *153:38 *398:B1 20 
*END

*D_NET *154 0.00775247
*CONN
*I *392:B I *D sg13g2_nor2_1
*I *396:B I *D sg13g2_nand2_1
*I *447:B I *D sg13g2_nand2_1
*I *460:A I *D sg13g2_nor2_1
*I *390:Y O *D sg13g2_nor2_1
*CAP
1 *392:B 0.000430812
2 *396:B 0.00010358
3 *447:B 0.00038373
4 *460:A 9.00863e-05
5 *390:Y 0.000118189
6 *154:42 0.00186608
7 *154:21 0.00221201
8 *154:10 0.000704869
9 *392:B *392:A 0
10 *392:B *407:A1 0
11 *392:B *411:A2 0
12 *392:B *470:A 0
13 *392:B *156:10 7.92265e-05
14 *392:B *159:52 0
15 *396:B *167:31 0
16 *447:B *564:A 4.78853e-05
17 *447:B *208:119 2.21831e-05
18 *447:B *209:52 0.000209614
19 *460:A *460:B 1.54556e-05
20 *460:A *210:104 0
21 *460:A *213:18 0
22 *460:A *215:36 0
23 *154:10 *212:22 4.62891e-05
24 *154:10 *213:18 4.72913e-05
25 *154:10 *213:86 0
26 *154:21 *162:14 0
27 *154:21 *208:119 0.000390273
28 *154:21 *215:36 0.000333544
29 *455:A2 *447:B 0.00014391
30 *527:A *392:B 0
31 *29:49 *396:B 7.52036e-05
32 *41:60 *154:10 0
33 *41:60 *154:21 0
34 *41:60 *154:42 0
35 *41:71 *392:B 0
36 *66:8 *447:B 0
37 *66:23 *447:B 0.000203289
38 *71:25 *447:B 0
39 *77:22 *154:42 0.000181218
40 *94:8 *154:42 0
41 *95:8 *154:42 0
42 *96:8 *154:42 0
43 *101:8 *154:42 0
44 *107:31 *447:B 4.77425e-05
45 *141:8 *392:B 0
46 *147:22 *447:B 0
47 *151:18 *154:42 0
*RES
1 *390:Y *154:10 41.1639 
2 *154:10 *460:A 40.7519 
3 *154:10 *154:21 5.2942 
4 *154:21 *447:B 44.5629 
5 *154:21 *154:42 10.3103 
6 *154:42 *396:B 40.9347 
7 *154:42 *392:B 43.5432 
*END

*D_NET *155 0.00377043
*CONN
*I *508:A2 I *D sg13g2_a21oi_1
*I *496:A1 I *D sg13g2_a21oi_1
*I *462:A2 I *D sg13g2_a21oi_1
*I *391:X O *D sg13g2_or2_1
*CAP
1 *508:A2 0
2 *496:A1 0.000429579
3 *462:A2 8.72038e-05
4 *391:X 0
5 *155:38 0.000227931
6 *155:10 0.000775129
7 *155:4 0.000486277
8 *496:A1 *197:19 0
9 *155:10 *210:45 0
10 *155:10 *210:55 0
11 *383:B *155:10 7.90005e-05
12 *383:B *155:38 7.91367e-05
13 *462:A1 *462:A2 0.000112458
14 *496:A2 *496:A1 1.54008e-05
15 *508:A1 *155:10 0
16 *508:A1 *155:38 0
17 *68:8 *496:A1 0
18 *68:38 *462:A2 0.000144168
19 *88:12 *155:38 0
20 *114:14 *496:A1 7.9225e-05
21 *149:8 *155:10 0
22 *149:12 *496:A1 7.51285e-05
23 *149:12 *155:10 0.000494595
24 *149:12 *155:38 0
25 *149:25 *496:A1 0.000685197
*RES
1 *391:X *155:4 20 
2 *155:4 *155:10 22.8634 
3 *155:10 *462:A2 40.9682 
4 *155:10 *496:A1 44.532 
5 *155:4 *155:38 41.8746 
6 *155:38 *508:A2 20 
*END

*D_NET *156 0.00820934
*CONN
*I *395:A1 I *D sg13g2_a21oi_1
*I *530:A2 I *D sg13g2_a21oi_1
*I *526:C I *D sg13g2_nor3_1
*I *392:Y O *D sg13g2_nor2_1
*CAP
1 *395:A1 0
2 *530:A2 6.50445e-05
3 *526:C 0
4 *392:Y 0.000554546
5 *156:55 0.000439312
6 *156:36 0.000763974
7 *156:20 4.76384e-05
8 *156:14 0.00111454
9 *156:10 0.00136183
10 *156:10 *407:A1 0.000145025
11 *156:10 *411:A2 0
12 *156:10 *412:C 8.01392e-05
13 *156:10 *159:52 0.000233913
14 *156:10 *185:8 0
15 *156:14 *415:B 4.77425e-05
16 *156:14 *526:A 1.53556e-05
17 *156:14 *528:A 0
18 *156:14 *576:A 0
19 *156:14 *578:A 0.00050134
20 *156:14 *165:20 0.000209554
21 *156:14 *167:8 0.000112541
22 *156:14 *200:40 0
23 *156:14 *200:51 0
24 *156:14 *201:113 0.000241955
25 *156:14 *202:56 0.000111999
26 *156:14 *206:64 0
27 *156:14 *207:23 8.02269e-05
28 *156:14 *207:42 0.000272963
29 *156:20 *202:44 0.000126859
30 *156:36 *392:A 0
31 *156:36 *163:38 0
32 *156:36 *165:14 0.000285286
33 *156:55 *196:8 0
34 *156:55 *200:66 0
35 *156:55 *202:124 0.000338033
36 *392:B *156:10 7.92265e-05
37 *531:A1 *530:A2 1.54008e-05
38 *531:A1 *156:55 1.54008e-05
39 *531:A2 *530:A2 0.000112541
40 *531:A2 *156:55 0.000177367
41 *531:B1 *156:36 0
42 *531:B1 *156:55 0.000274297
43 *35:33 *156:36 0
44 *35:33 *156:55 0
45 *35:37 *530:A2 0.000112426
46 *35:37 *156:36 0
47 *141:8 *156:36 0
48 *145:23 *156:14 1.54008e-05
49 *145:30 *156:14 0.000257463
50 *145:39 *156:14 0
51 *150:31 *156:36 0
*RES
1 *392:Y *156:10 43.1724 
2 *156:10 *156:14 31.3506 
3 *156:14 *156:20 40.5974 
4 *156:20 *526:C 20 
5 *392:Y *156:36 42.3696 
6 *156:36 *530:A2 40.7519 
7 *156:36 *156:55 44.6659 
8 *156:55 *395:A1 40 
*END

*D_NET *157 0.00730087
*CONN
*I *394:B I *D sg13g2_and2_1
*I *444:A I *D sg13g2_and2_1
*I *445:A I *D sg13g2_nand2_1
*I *510:B I *D sg13g2_and3_1
*I *393:X O *D sg13g2_or2_1
*CAP
1 *394:B 0
2 *444:A 0
3 *445:A 9.76925e-05
4 *510:B 0
5 *393:X 0.000255626
6 *157:57 0.00109616
7 *157:42 0.00163192
8 *157:26 0.000601005
9 *157:16 0.000698698
10 *157:14 0.000419098
11 *157:8 0.00121049
12 *445:A *161:12 0
13 *157:14 *217:20 0.000375962
14 *157:26 *454:A 0
15 *157:26 *161:12 0
16 *157:26 *162:14 0
17 *157:26 *208:106 1.54008e-05
18 *157:26 *208:119 8.00842e-05
19 *157:42 *214:70 0
20 *157:42 *214:89 0
21 *157:57 *403:A1 0
22 *157:57 *585:A 0
23 *157:57 *588:A 0
24 *157:57 *209:123 0.00015341
25 *389:B *157:57 0
26 *475:A_N *157:26 0.000124855
27 *486:A *157:57 0
28 *512:A2 *445:A 0
29 *514:A2 *157:26 0
30 *29:12 *157:8 0
31 *29:27 *157:8 0
32 *29:27 *157:42 0
33 *29:27 *157:57 0
34 *29:49 *157:57 0
35 *72:22 *157:8 0
36 *142:14 *157:14 0.000113387
37 *142:31 *157:14 0.000427099
38 *142:31 *157:42 0
39 *142:31 *157:57 0
40 *147:55 *157:14 0
41 *151:47 *157:57 0
42 *152:10 *157:57 0
*RES
1 *393:X *157:8 42.0806 
2 *157:8 *157:14 45.0779 
3 *157:14 *157:16 20 
4 *157:16 *157:26 45.2839 
5 *157:26 *510:B 20 
6 *157:16 *445:A 21.1021 
7 *157:8 *157:42 5.5414 
8 *157:42 *444:A 40 
9 *157:42 *157:57 30.3206 
10 *157:57 *394:B 20 
*END

*D_NET *158 0.000252982
*CONN
*I *395:A2 I *D sg13g2_a21oi_1
*I *394:X O *D sg13g2_and2_1
*CAP
1 *395:A2 0.000126491
2 *394:X 0.000126491
3 *395:A2 *403:A1 0
4 *403:B1 *395:A2 0
*RES
1 *394:X *395:A2 41.4111 
*END

*D_NET *159 0.00762493
*CONN
*I *398:A1 I *D sg13g2_o21ai_1
*I *466:B I *D sg13g2_nand2_1
*I *520:A1 I *D sg13g2_a21oi_1
*I *396:Y O *D sg13g2_nand2_1
*CAP
1 *398:A1 0.000168385
2 *466:B 0.000128843
3 *520:A1 0.00033729
4 *396:Y 5.75058e-05
5 *159:52 0.00108534
6 *159:22 0.000706114
7 *159:16 0.00101557
8 *159:10 0.00175006
9 *398:A1 *587:A 0
10 *398:A1 *160:27 0.000112426
11 *398:A1 *196:8 7.34121e-05
12 *466:B *466:A 0
13 *466:B *209:8 0
14 *520:A1 *520:B1 0
15 *520:A1 *162:24 0
16 *520:A1 *204:74 0
17 *159:10 *411:B1 0
18 *159:22 *204:85 0
19 *159:22 *207:60 0.000146752
20 *159:22 *207:75 0.00013031
21 *159:52 *411:B1 0
22 *159:52 *470:A 0
23 *159:52 *202:88 0
24 *159:52 *207:48 0
25 *159:52 *223:16 0
26 *392:B *159:52 0
27 *494:B1 *466:B 0
28 *520:A2 *520:A1 0.00014431
29 *566:A *520:A1 0.000602149
30 *29:49 *159:10 2.18151e-05
31 *29:63 *159:10 4.75334e-05
32 *141:8 *159:52 0
33 *142:14 *159:22 0
34 *145:54 *159:52 4.8158e-05
35 *145:67 *159:52 0.000590919
36 *153:8 *398:A1 1.54008e-05
37 *153:14 *398:A1 0.00020871
38 *156:10 *159:52 0.000233913
*RES
1 *396:Y *159:10 40.6695 
2 *159:10 *159:16 49.4966 
3 *159:16 *159:22 42.6986 
4 *159:22 *520:A1 43.7904 
5 *159:22 *466:B 40.9682 
6 *159:10 *159:52 49.9498 
7 *159:52 *398:A1 41.751 
*END

*D_NET *160 0.00214823
*CONN
*I *398:A2 I *D sg13g2_o21ai_1
*I *403:A1 I *D sg13g2_o21ai_1
*I *397:X O *D sg13g2_or2_1
*CAP
1 *398:A2 0
2 *403:A1 0.000466156
3 *397:X 0
4 *160:27 0.000242132
5 *160:4 0.000708288
6 *403:A1 *585:A 0
7 *403:A1 *163:38 1.54008e-05
8 *403:A1 *163:53 0.000112314
9 *403:A1 *165:37 4.77363e-05
10 *403:A1 *223:8 0
11 *160:27 *397:B 0.000128248
12 *160:27 *196:8 0
13 *160:27 *200:72 0.000315533
14 *395:A2 *403:A1 0
15 *398:A1 *160:27 0.000112426
16 *403:B1 *403:A1 0
17 *29:49 *403:A1 0
18 *153:14 *403:A1 0
19 *157:57 *403:A1 0
*RES
1 *397:X *160:4 20 
2 *160:4 *403:A1 24.2195 
3 *160:4 *160:27 42.8325 
4 *160:27 *398:A2 20 
*END

*D_NET *161 0.00480623
*CONN
*I *444:B I *D sg13g2_and2_1
*I *485:A1 I *D sg13g2_a221oi_1
*I *478:B1 I *D sg13g2_o21ai_1
*I *445:B I *D sg13g2_nand2_1
*I *399:Y O *D sg13g2_nand2_1
*CAP
1 *444:B 0.000261816
2 *485:A1 0
3 *478:B1 0.000185902
4 *445:B 0
5 *399:Y 0.000458267
6 *161:44 0.000845677
7 *161:23 0.000896045
8 *161:12 0.000306432
9 *161:8 0.000638416
10 *444:B *459:A 0
11 *161:12 *454:A 0
12 *161:23 *454:A 0.000176741
13 *445:A *161:12 0
14 *455:B1 *161:23 0
15 *478:A2 *478:B1 2.14736e-05
16 *486:B *444:B 0
17 *512:A2 *161:23 0
18 *41:60 *161:8 0
19 *63:10 *444:B 0.000111334
20 *65:23 *161:44 0
21 *75:10 *161:44 0
22 *78:31 *444:B 1.54285e-05
23 *78:31 *161:44 4.77702e-05
24 *97:8 *478:B1 0.000128306
25 *97:8 *161:44 0.000712625
26 *107:37 *161:44 0
27 *157:26 *161:12 0
*RES
1 *399:Y *161:8 43.3166 
2 *161:8 *161:12 21.6171 
3 *161:12 *445:B 20 
4 *161:12 *161:23 21.5347 
5 *161:23 *478:B1 42.1939 
6 *161:23 *161:44 25.9019 
7 *161:44 *485:A1 20 
8 *161:44 *444:B 22.6162 
*END

*D_NET *162 0.0063805
*CONN
*I *460:B I *D sg13g2_nor2_1
*I *519:A I *D sg13g2_nor2_1
*I *405:B I *D sg13g2_nand2_1
*I *401:A I *D sg13g2_inv_1
*I *400:X O *D sg13g2_and2_1
*CAP
1 *460:B 0.000203528
2 *519:A 0
3 *405:B 0.000139767
4 *401:A 0.000403958
5 *400:X 0
6 *162:24 0.00142591
7 *162:14 0.00131245
8 *162:4 0.000633789
9 *405:B *497:A 0.000281284
10 *405:B *200:8 0
11 *405:B *200:25 0
12 *460:B *213:29 0
13 *162:14 *215:36 0
14 *162:24 *489:A 0
15 *162:24 *497:A 0
16 *162:24 *564:A 0
17 *162:24 *203:23 0
18 *162:24 *204:74 7.34783e-05
19 *162:24 *204:91 0
20 *162:24 *207:52 0
21 *162:24 *207:60 7.44237e-05
22 *162:24 *211:8 0
23 *162:24 *215:51 0.000249508
24 *442:A2 *401:A 0
25 *460:A *460:B 1.54556e-05
26 *475:A_N *162:14 0
27 *510:C *460:B 0
28 *513:A2 *460:B 0
29 *514:B1 *162:14 4.77425e-05
30 *520:A1 *162:24 0
31 *566:A *162:24 0
32 *33:10 *162:14 0
33 *39:33 *401:A 4.77702e-05
34 *39:46 *401:A 0.000240799
35 *79:10 *460:B 0
36 *79:20 *460:B 0
37 *79:20 *162:14 0.00012596
38 *88:33 *405:B 0
39 *110:16 *401:A 0.000273652
40 *115:8 *162:24 0.000394255
41 *126:18 *162:14 0
42 *130:10 *162:14 0.000436762
43 *154:21 *162:14 0
44 *157:26 *162:14 0
*RES
1 *400:X *162:4 20 
2 *162:4 *162:14 44.4187 
3 *162:14 *162:24 28.755 
4 *162:24 *401:A 43.9964 
5 *162:24 *405:B 41.339 
6 *162:14 *519:A 20 
7 *162:4 *460:B 21.9673 
*END

*D_NET *163 0.00612122
*CONN
*I *402:B I *D sg13g2_nor2_1
*I *404:B I *D sg13g2_nor2_1
*I *411:A2 I *D sg13g2_o21ai_1
*I *484:A1 I *D sg13g2_a22oi_1
*I *401:Y O *D sg13g2_inv_1
*CAP
1 *402:B 0
2 *404:B 0
3 *411:A2 0.000303234
4 *484:A1 0.000266092
5 *401:Y 0
6 *163:53 0.000312455
7 *163:38 0.000518929
8 *163:21 0.000937452
9 *163:6 0.000693836
10 *411:A2 *392:A 0.000112683
11 *411:A2 *411:B1 1.54285e-05
12 *484:A1 *197:108 0.000234176
13 *484:A1 *209:65 0
14 *163:21 *392:A 0.000158032
15 *163:21 *166:34 0
16 *163:21 *167:31 0.000234224
17 *163:21 *197:108 0.00102861
18 *163:21 *209:65 0
19 *163:38 *392:A 4.75151e-05
20 *163:38 *404:A 0
21 *163:38 *165:14 4.77425e-05
22 *163:38 *165:37 4.77425e-05
23 *163:53 *387:A 0.000285421
24 *163:53 *164:12 0.000143544
25 *163:53 *165:37 9.6913e-05
26 *163:53 *197:108 0
27 *163:53 *202:92 0.000105753
28 *163:53 *218:39 0.000176018
29 *392:B *411:A2 0
30 *402:A *163:53 0
31 *403:A1 *163:38 1.54008e-05
32 *403:A1 *163:53 0.000112314
33 *484:B1 *484:A1 0.000207229
34 *527:A *163:21 0
35 *41:75 *411:A2 0
36 *63:35 *484:A1 2.04787e-05
37 *102:10 *484:A1 0
38 *156:10 *411:A2 0
39 *156:36 *163:38 0
*RES
1 *401:Y *163:6 40 
2 *163:6 *484:A1 42.7089 
3 *163:6 *163:21 25.5414 
4 *163:21 *411:A2 22.9355 
5 *163:21 *163:38 2.0703 
6 *163:38 *404:B 20 
7 *163:38 *163:53 43.7698 
8 *163:53 *402:B 20 
*END

*D_NET *164 0.0026962
*CONN
*I *485:C1 I *D sg13g2_a221oi_1
*I *403:A2 I *D sg13g2_o21ai_1
*I *402:Y O *D sg13g2_nor2_1
*CAP
1 *485:C1 0
2 *403:A2 0
3 *402:Y 0
4 *164:27 0.000446947
5 *164:12 0.000453034
6 *164:4 0.000899981
7 *164:12 *392:A 0
8 *164:12 *165:14 0
9 *164:12 *193:10 0
10 *164:12 *197:108 0
11 *164:12 *218:39 0
12 *164:27 *387:B 0
13 *164:27 *203:35 0
14 *402:A *164:12 0.000240684
15 *29:37 *164:27 0
16 *39:46 *164:27 0
17 *63:14 *164:27 1.54008e-05
18 *63:35 *164:27 4.77699e-05
19 *63:46 *164:27 0.000448843
20 *163:53 *164:12 0.000143544
*RES
1 *402:Y *164:4 20 
2 *164:4 *164:12 43.9449 
3 *164:12 *403:A2 20 
4 *164:4 *164:27 45.2221 
5 *164:27 *485:C1 20 
*END

*D_NET *165 0.00511572
*CONN
*I *406:A2 I *D sg13g2_a21oi_1
*I *409:A1 I *D sg13g2_o21ai_1
*I *404:Y O *D sg13g2_nor2_1
*CAP
1 *406:A2 0
2 *409:A1 0
3 *404:Y 0
4 *165:37 0.000799555
5 *165:20 0.000127924
6 *165:14 0.000774238
7 *165:4 0.00144587
8 *165:14 *392:A 0
9 *165:14 *404:A 4.7885e-05
10 *165:14 *193:10 0
11 *165:20 *409:A2 4.77699e-05
12 *165:20 *200:51 0
13 *165:37 *394:A 7.94462e-05
14 *165:37 *404:A 3.23417e-05
15 *165:37 *585:A 0
16 *165:37 *193:10 0
17 *165:37 *196:8 0.000338897
18 *165:37 *200:100 0
19 *165:37 *202:92 0
20 *165:37 *202:124 0
21 *165:37 *222:10 0
22 *403:A1 *165:37 4.77363e-05
23 *29:49 *165:37 0
24 *145:54 *165:14 0.000145811
25 *145:67 *165:14 0.000541008
26 *153:8 *165:37 0
27 *153:14 *165:37 0
28 *156:14 *165:20 0.000209554
29 *156:36 *165:14 0.000285286
30 *163:38 *165:14 4.77425e-05
31 *163:38 *165:37 4.77425e-05
32 *163:53 *165:37 9.6913e-05
33 *164:12 *165:14 0
*RES
1 *404:Y *165:4 20 
2 *165:4 *165:14 47.3233 
3 *165:14 *165:20 41.4008 
4 *165:20 *409:A1 20 
5 *165:4 *165:37 47.7353 
6 *165:37 *406:A2 20 
*END

*D_NET *166 0.00377975
*CONN
*I *527:B I *D sg13g2_nor2_1
*I *441:C I *D sg13g2_nor3_1
*I *473:B I *D sg13g2_nand3_1
*I *405:Y O *D sg13g2_nand2_1
*CAP
1 *527:B 0
2 *441:C 0
3 *473:B 0.000571558
4 *405:Y 0
5 *166:34 0.000469686
6 *166:21 0.000648652
7 *166:4 0.000750524
8 *473:B *203:35 0
9 *473:B *218:47 0.000312199
10 *166:21 *203:35 8.00842e-05
11 *166:21 *218:47 0
12 *166:34 *203:35 0.000257433
13 *166:34 *209:65 0.000605042
14 *442:A2 *473:B 0
15 *473:C *473:B 1.00105e-05
16 *527:A *166:34 7.4563e-05
17 *549:A *473:B 0
18 *3:20 *473:B 0
19 *41:60 *166:34 0
20 *41:71 *166:34 0
21 *163:21 *166:34 0
*RES
1 *405:Y *166:4 20 
2 *166:4 *473:B 25.7989 
3 *166:4 *166:21 1.6171 
4 *166:21 *441:C 20 
5 *166:21 *166:34 44.9028 
6 *166:34 *527:B 20 
*END

*D_NET *167 0.00683811
*CONN
*I *409:A2 I *D sg13g2_o21ai_1
*I *412:B I *D sg13g2_nand3_1
*I *488:B1 I *D sg13g2_a21oi_1
*I *497:A I *D sg13g2_nor3_1
*I *408:X O *D sg13g2_or2_1
*CAP
1 *409:A2 0.000101017
2 *412:B 3.11036e-05
3 *488:B1 0.000349664
4 *497:A 0.000442911
5 *408:X 7.51049e-05
6 *167:31 0.000799834
7 *167:12 0.0011531
8 *167:10 0.000410564
9 *167:8 0.000295559
10 *409:A2 *185:8 0.000178206
11 *409:A2 *200:40 1.54282e-05
12 *412:B *412:C 4.77699e-05
13 *488:B1 *387:A 0
14 *488:B1 *203:35 0.000273624
15 *497:A *405:A 0.000181608
16 *497:A *197:93 0
17 *497:A *207:48 0
18 *497:A *207:52 0
19 *167:8 *203:61 0
20 *167:10 *185:8 0.00033859
21 *167:10 *200:40 0
22 *167:12 *405:A 0.000367955
23 *167:12 *185:8 0.000126855
24 *167:12 *207:48 0
25 *167:31 *470:A 0
26 *167:31 *209:65 0.00023464
27 *167:31 *218:41 0.000337544
28 *167:31 *218:47 0.000305727
29 *396:B *167:31 0
30 *405:B *497:A 0.000281284
31 *481:C *497:A 4.77425e-05
32 *497:B *497:A 0
33 *29:49 *167:31 0
34 *29:63 *167:31 0
35 *39:46 *488:B1 0
36 *89:8 *167:12 0
37 *106:10 *488:B1 4.77425e-05
38 *151:12 *488:B1 0
39 *156:14 *167:8 0.000112541
40 *162:24 *497:A 0
41 *163:21 *167:31 0.000234224
42 *165:20 *409:A2 4.77699e-05
*RES
1 *408:X *167:8 40.7519 
2 *167:8 *167:10 1.5862 
3 *167:10 *167:12 2.8222 
4 *167:12 *497:A 44.3775 
5 *167:12 *167:31 45.3045 
6 *167:31 *488:B1 43.5638 
7 *167:10 *412:B 40.3193 
8 *167:8 *409:A2 41.1639 
*END

*D_NET *168 0.0018499
*CONN
*I *411:B1 I *D sg13g2_o21ai_1
*I *470:A I *D sg13g2_nand2_1
*I *410:Y O *D sg13g2_nor2_1
*CAP
1 *411:B1 0.000208759
2 *470:A 0.000195212
3 *410:Y 0.000115935
4 *168:8 0.000519906
5 *411:B1 *412:C 0.000176587
6 *411:B1 *207:48 0.000263809
7 *470:A *207:48 0.000177896
8 *168:8 *412:C 0
9 *392:B *470:A 0
10 *411:A2 *411:B1 1.54285e-05
11 *29:49 *411:B1 0
12 *29:63 *411:B1 0
13 *29:63 *470:A 0.000176365
14 *29:63 *168:8 0
15 *101:8 *470:A 0
16 *159:10 *411:B1 0
17 *159:52 *411:B1 0
18 *159:52 *470:A 0
19 *167:31 *470:A 0
*RES
1 *410:Y *168:8 40.9682 
2 *168:8 *470:A 42.0291 
3 *168:8 *411:B1 42.5235 
*END

*D_NET *169 0.000857259
*CONN
*I *412:C I *D sg13g2_nand3_1
*I *411:Y O *D sg13g2_o21ai_1
*CAP
1 *412:C 0.000220155
2 *411:Y 0.000220155
3 *412:C *407:A1 0
4 *412:C *207:42 0.000112453
5 *411:B1 *412:C 0.000176587
6 *412:B *412:C 4.77699e-05
7 *156:10 *412:C 8.01392e-05
8 *168:8 *412:C 0
*RES
1 *411:Y *412:C 42.266 
*END

*D_NET *170 0.00456664
*CONN
*I *529:A2 I *D sg13g2_a21oi_1
*I *464:B I *D sg13g2_nand2_1
*I *521:A I *D sg13g2_nand2_1
*I *413:Y O *D sg13g2_nand2_1
*CAP
1 *529:A2 0
2 *464:B 5.95555e-05
3 *521:A 0.000151729
4 *413:Y 0
5 *170:42 0.00051323
6 *170:14 0.000627723
7 *170:4 0.000929669
8 *464:B *579:A 0
9 *464:B *197:41 0
10 *464:B *202:26 4.77699e-05
11 *521:A *201:77 0.000233913
12 *521:A *202:26 0
13 *170:14 *197:31 4.75525e-05
14 *170:14 *197:41 0.000245596
15 *170:14 *201:77 0.00055109
16 *170:14 *205:10 0.000143544
17 *170:42 *197:31 0.000225003
18 *170:42 *207:23 0
19 *170:42 *209:85 0
20 *170:42 *214:106 0
21 *413:B *170:14 4.75525e-05
22 *413:B *170:42 0.00020799
23 *414:A *170:42 0.000234224
24 *442:A2 *521:A 0.000112683
25 *500:B *464:B 0.000112683
26 *521:B *521:A 0
27 *16:10 *170:14 0
28 *27:10 *170:14 0
29 *60:22 *170:14 0
30 *83:18 *521:A 0
31 *144:52 *170:42 7.51285e-05
*RES
1 *413:Y *170:4 20 
2 *170:4 *170:14 24.8616 
3 *170:14 *521:A 41.8437 
4 *170:14 *464:B 40.7519 
5 *170:4 *170:42 45.1809 
6 *170:42 *529:A2 20 
*END

*D_NET *171 0.00261069
*CONN
*I *415:C I *D sg13g2_nand3_1
*I *439:B I *D sg13g2_nor3_1
*I *414:Y O *D sg13g2_nand2_1
*CAP
1 *415:C 0.000163725
2 *439:B 0
3 *414:Y 0.000126855
4 *171:22 0.000341868
5 *171:10 0.000505592
6 *171:8 0.000126855
7 *415:C *415:B 1.54008e-05
8 *415:C *207:42 0.000255649
9 *171:8 *209:85 0.000182023
10 *171:8 *216:10 0.000447597
11 *171:22 *206:64 0.000287511
12 *171:22 *206:72 0
13 *171:22 *207:42 0
14 *171:22 *218:59 0
15 *385:A *415:C 0
16 *385:A *171:22 1.54008e-05
17 *439:C *171:22 1.53556e-05
18 *35:27 *171:22 0.000126859
*RES
1 *414:Y *171:8 42.0806 
2 *171:8 *171:10 20 
3 *171:10 *171:22 43.5329 
4 *171:22 *439:B 20 
5 *171:10 *415:C 21.6171 
*END

*D_NET *172 0.000397745
*CONN
*I *419:B1 I *D sg13g2_o21ai_1
*I *416:Y O *D sg13g2_nand2_1
*CAP
1 *419:B1 3.34444e-05
2 *416:Y 0.000103992
3 *172:8 0.000137437
4 *419:B1 *419:A2 4.77425e-05
5 *172:8 *416:B 0
6 *172:8 *174:8 7.51285e-05
7 *172:8 *212:105 0
8 *41:60 *172:8 0
*RES
1 *416:Y *172:8 41.0918 
2 *172:8 *419:B1 40.3193 
*END

*D_NET *173 0.00116845
*CONN
*I *419:A2 I *D sg13g2_o21ai_1
*I *418:B I *D sg13g2_xnor2_1
*I *417:Y O *D sg13g2_xnor2_1
*CAP
1 *419:A2 0.000137887
2 *418:B 0.000310073
3 *417:Y 0
4 *173:6 0.00044796
5 *418:B *417:A 0
6 *418:B *418:A 0
7 *418:B *423:A2 0
8 *418:B *174:8 0
9 *418:B *177:16 0.0001447
10 *419:B1 *419:A2 4.77425e-05
11 *419:A1 *419:A2 8.00842e-05
*RES
1 *417:Y *173:6 40 
2 *173:6 *418:B 42.987 
3 *173:6 *419:A2 41.3802 
*END

*D_NET *174 0.00217123
*CONN
*I *422:A I *D sg13g2_xor2_1
*I *423:A1 I *D sg13g2_a21oi_1
*I *419:Y O *D sg13g2_o21ai_1
*CAP
1 *422:A 0
2 *423:A1 0.000252433
3 *419:Y 0.000255897
4 *174:8 0.00050833
5 *423:A1 *420:B 7.52158e-05
6 *423:A1 *422:B 1.54556e-05
7 *423:A1 *423:A2 0.00027444
8 *423:A1 *423:B1 0
9 *423:A1 *177:8 0
10 *174:8 *416:B 0.000394981
11 *174:8 *420:B 0.000319351
12 *174:8 *177:8 0
13 *418:B *174:8 0
14 *172:8 *174:8 7.51285e-05
*RES
1 *419:Y *174:8 43.3166 
2 *174:8 *423:A1 42.678 
3 *174:8 *422:A 40 
*END

*D_NET *175 0.00125248
*CONN
*I *423:B1 I *D sg13g2_a21oi_1
*I *420:X O *D sg13g2_and2_1
*CAP
1 *423:B1 0.000400185
2 *420:X 0.000400185
3 *423:B1 *420:B 0
4 *423:B1 *422:B 0
5 *423:B1 *219:87 0.000242355
6 *423:A1 *423:B1 0
7 *542:D *423:B1 0.000209756
*RES
1 *420:X *423:B1 44.2951 
*END

*D_NET *176 0.00192982
*CONN
*I *423:A2 I *D sg13g2_a21oi_1
*I *422:B I *D sg13g2_xor2_1
*I *421:X O *D sg13g2_xor2_1
*CAP
1 *423:A2 0.000191367
2 *422:B 0.000117441
3 *421:X 0.000267657
4 *176:10 0.000576465
5 *423:A2 *420:B 4.77425e-05
6 *423:A2 *177:16 0
7 *176:10 *420:B 0.000181608
8 *176:10 *421:B 4.78853e-05
9 *176:10 *177:16 0.000209756
10 *176:10 *212:113 0
11 *176:10 *219:87 0
12 *418:B *423:A2 0
13 *423:A1 *422:B 1.54556e-05
14 *423:A1 *423:A2 0.00027444
15 *423:B1 *422:B 0
*RES
1 *421:X *176:10 43.1415 
2 *176:10 *422:B 41.133 
3 *176:10 *423:A2 42.266 
*END

*D_NET *177 0.00338886
*CONN
*I *426:A I *D sg13g2_xor2_1
*I *429:A1 I *D sg13g2_o21ai_1
*I *423:Y O *D sg13g2_a21oi_1
*CAP
1 *426:A 0
2 *429:A1 0
3 *423:Y 0.000168101
4 *177:24 0.000445903
5 *177:16 0.0010021
6 *177:8 0.000724301
7 *177:16 *417:A 0
8 *177:16 *421:B 0.000259039
9 *177:16 *198:59 8.02269e-05
10 *177:16 *198:61 0
11 *177:24 *421:B 1.54008e-05
12 *177:24 *178:8 0
13 *177:24 *198:59 0.000339326
14 *177:24 *199:40 0
15 *418:B *177:16 0.0001447
16 *423:A1 *177:8 0
17 *423:A2 *177:16 0
18 *174:8 *177:8 0
19 *176:10 *177:16 0.000209756
*RES
1 *423:Y *177:8 41.8334 
2 *177:8 *177:16 25.7474 
3 *177:16 *177:24 44.5938 
4 *177:24 *429:A1 20 
5 *177:16 *426:A 20 
*END

*D_NET *178 0.00185227
*CONN
*I *429:B1 I *D sg13g2_o21ai_1
*I *424:Y O *D sg13g2_nand2_1
*CAP
1 *429:B1 0.000172996
2 *424:Y 0.000247943
3 *178:8 0.000420939
4 *429:B1 *179:14 0.000307126
5 *178:8 *179:14 0.000340704
6 *178:8 *199:46 0.000287343
7 *178:8 *210:78 7.52158e-05
8 *177:24 *178:8 0
*RES
1 *424:Y *178:8 43.5638 
2 *178:8 *429:B1 42.0497 
*END

*D_NET *179 0.00226383
*CONN
*I *426:B I *D sg13g2_xor2_1
*I *429:A2 I *D sg13g2_o21ai_1
*I *425:Y O *D sg13g2_xnor2_1
*CAP
1 *426:B 0
2 *429:A2 0
3 *425:Y 0.00039154
4 *179:14 0.000336623
5 *179:6 0.000728163
6 *179:6 *198:59 1.54556e-05
7 *179:6 *199:40 0
8 *179:6 *219:87 0
9 *179:14 *212:113 0
10 *179:14 *219:87 0
11 *429:B1 *179:14 0.000307126
12 *543:RESET_B *179:6 0.000144217
13 *543:D *179:6 0
14 *45:10 *179:6 0
15 *178:8 *179:14 0.000340704
*RES
1 *425:Y *179:6 23.5638 
2 *179:6 *179:14 43.8522 
3 *179:14 *429:A2 20 
4 *179:6 *426:B 20 
*END

*D_NET *180 0.00347762
*CONN
*I *551:A I *D sg13g2_buf_16
*I *550:A I *D sg13g2_buf_16
*I *549:X O *D sg13g2_buf_16
*CAP
1 *551:A 0.000115419
2 *550:A 0.000116287
3 *549:X 0
4 *180:43 0.000243613
5 *180:39 0.00061211
6 *180:23 0.000344427
7 *180:19 0.000859497
8 *180:11 0.00115077
9 *180:6 3.54953e-05
10 *180:11 *209:18 0
11 *180:19 *204:53 0
12 *180:19 *209:18 0
13 *180:19 *214:89 0
14 *180:23 *465:A 0
15 *180:39 *204:53 0
16 *180:39 *204:85 0
17 *180:39 *204:104 0
18 *180:43 *197:97 0
19 *449:A *180:23 0
20 *68:54 *180:43 0
21 *71:8 *180:23 0
22 *71:42 *180:23 0
23 *78:16 *180:19 0
24 *78:16 *180:39 0
25 *85:8 *180:11 0
26 *85:8 *180:19 0
27 *142:50 *180:19 0
28 *144:33 *180:23 0
*RES
1 *549:X *180:6 40 
2 *180:6 *180:11 0.3502 
3 *180:11 *180:19 45.7062 
4 *180:19 *180:23 22.0497 
5 *180:23 *550:A 20.9682 
6 *180:11 *180:39 44.2127 
7 *180:39 *180:43 20.9682 
8 *180:43 *551:A 20.9682 
*END

*D_NET *181 0.0112489
*CONN
*I *547:CLK I *D sg13g2_dfrbpq_1
*I *548:CLK I *D sg13g2_dfrbpq_1
*I *546:CLK I *D sg13g2_dfrbpq_1
*I *544:CLK I *D sg13g2_dfrbpq_1
*I *545:CLK I *D sg13g2_dfrbpq_1
*I *550:X O *D sg13g2_buf_16
*CAP
1 *547:CLK 0.00035091
2 *548:CLK 0
3 *546:CLK 0
4 *544:CLK 0.000641175
5 *545:CLK 0.000156472
6 *550:X 0.000362024
7 *181:39 0.00063203
8 *181:12 0.00140902
9 *181:10 0.00127922
10 *181:8 0.00131099
11 *544:CLK *428:A 0
12 *544:CLK *183:33 0
13 *544:CLK *204:6 4.75166e-05
14 *544:CLK *204:10 0.000175809
15 *544:CLK *219:71 0
16 *545:CLK *198:27 0
17 *545:CLK *219:18 0
18 *181:8 *442:A1 0.000175693
19 *181:8 *442:B1 0.000112198
20 *181:10 *197:41 0.000658479
21 *181:10 *199:18 0
22 *181:10 *219:29 0
23 *181:12 *183:10 0
24 *181:12 *198:19 0
25 *181:12 *219:18 0
26 *181:12 *219:29 0
27 *181:39 *197:41 0.000871028
28 sine_out[1] *547:CLK 0.000660971
29 sine_out[2] *547:CLK 0.000339468
30 *433:A2 *544:CLK 0
31 *435:B1 *544:CLK 0
32 *435:A2 *544:CLK 0
33 *437:A *544:CLK 0
34 *521:B *181:8 0.000208265
35 *547:D *547:CLK 0
36 *560:A *544:CLK 0
37 *17:10 *547:CLK 0.000501546
38 *27:10 *547:CLK 4.77425e-05
39 *39:8 *181:10 0
40 *49:8 *547:CLK 0
41 *49:8 *181:39 0
42 *50:8 *181:10 0
43 *50:8 *181:39 0
44 *56:6 *544:CLK 0
45 *60:22 *547:CLK 0
46 *60:22 *181:39 0
47 *76:33 *181:8 0.000129177
48 *119:10 *181:8 0.000337442
49 *122:18 *181:10 0.000394566
50 *124:8 *181:10 0.000447182
*RES
1 *550:X *181:8 43.9964 
2 *181:8 *181:10 8.5078 
3 *181:10 *181:12 5.2942 
4 *181:12 *545:CLK 41.5862 
5 *181:12 *544:CLK 45.4034 
6 *181:10 *546:CLK 40 
7 *181:8 *181:39 4.3054 
8 *181:39 *548:CLK 40 
9 *181:39 *547:CLK 45.5826 
*END

*D_NET *182 0.00540217
*CONN
*I *552:A I *D sg13g2_inv_1
*I *542:CLK I *D sg13g2_dfrbpq_1
*I *540:CLK I *D sg13g2_dfrbpq_1
*I *541:CLK I *D sg13g2_dfrbpq_1
*I *543:CLK I *D sg13g2_dfrbpq_1
*I *551:X O *D sg13g2_buf_16
*CAP
1 *552:A 1.17197e-05
2 *542:CLK 0
3 *540:CLK 0.000202955
4 *541:CLK 0
5 *543:CLK 0.000821556
6 *551:X 0.000298755
7 *182:38 0.000400104
8 *182:31 0.000622172
9 *182:16 0.00166034
10 *182:12 0.000724237
11 *543:CLK *417:A 0
12 *543:CLK *425:A 0
13 *543:CLK *183:33 0
14 *543:CLK *198:59 0
15 *543:CLK *198:61 0
16 *543:CLK *212:105 0
17 *543:CLK *212:113 0
18 *182:12 *417:A 0
19 *182:12 *213:18 1.10483e-06
20 *182:16 *417:A 0
21 *182:16 *213:18 0.000127471
22 *182:31 *417:A 0
23 *182:31 *418:A 0
24 *419:A1 *543:CLK 0.000209526
25 *542:RESET_B *540:CLK 0
26 *542:RESET_B *182:31 0
27 *542:RESET_B *182:38 0
28 *41:24 *182:31 0
29 *41:24 *182:38 0
30 *41:49 *543:CLK 6.4771e-05
31 *41:49 *182:31 0.000257452
32 *41:60 *182:12 0
33 *41:60 *182:16 0
*RES
1 *551:X *182:12 42.508 
2 *182:12 *182:16 23.8058 
3 *182:16 *543:CLK 27.9584 
4 *182:16 *182:31 4.4496 
5 *182:31 *541:CLK 20 
6 *182:31 *182:38 2.266 
7 *182:38 *540:CLK 22.1836 
8 *182:38 *542:CLK 20 
9 *182:12 *552:A 40.1082 
*END

*D_NET *183 0.00740077
*CONN
*I *533:A I *D sg13g2_inv_1
*I *573:A I *D sg13g2_buf_1
*I *575:X O *D sg13g2_buf_1
*CAP
1 *533:A 0
2 *573:A 0
3 *575:X 0.000418478
4 *183:33 0.00192508
5 *183:27 0.00212838
6 *183:14 0.000398134
7 *183:10 0.000613303
8 *183:10 *436:A 0
9 *183:10 *198:19 0.000233917
10 *183:10 *199:18 0.000126855
11 *183:10 *204:32 0
12 *183:14 *199:18 0
13 *183:27 *199:18 0
14 *183:27 *199:31 0.000388152
15 *183:27 *204:32 0
16 *183:27 *219:59 0
17 *183:27 *219:71 0
18 *183:33 *417:A 0
19 *183:33 *425:A 0
20 *183:33 *212:20 0
21 *183:33 *212:22 0
22 *183:33 *212:33 0
23 *183:33 *212:43 0
24 *183:33 *213:33 0
25 *183:33 *213:35 0
26 *183:33 *215:69 0.000347885
27 *183:33 *219:71 0.000820584
28 *419:A1 *183:33 0
29 *543:CLK *183:33 0
30 *544:CLK *183:33 0
31 *560:A *183:14 0
32 *33:10 *183:33 0
33 *41:49 *183:33 0
34 *57:8 *183:27 0
35 *181:12 *183:10 0
*RES
1 *575:X *183:10 44.1303 
2 *183:10 *183:14 21.6171 
3 *183:14 *573:A 20 
4 *183:14 *183:27 42.369 
5 *183:27 *183:33 39.1169 
6 *183:33 *533:A 40 
*END

*D_NET *184 0.00226153
*CONN
*I *576:A I *D sg13g2_buf_1
*I *409:Y O *D sg13g2_o21ai_1
*CAP
1 *576:A 0.00085885
2 *409:Y 0.00085885
3 *576:A *578:A 0
4 *576:A *581:A 0
5 *576:A *584:A 0.000207661
6 *576:A *590:A 0
7 *576:A *200:51 0
8 *576:A *201:94 0
9 sine_out[17] *576:A 8.0185e-05
10 sine_out[3] *576:A 0.000112528
11 sine_out[6] *576:A 0.000143456
12 *150:23 *576:A 0
13 *156:14 *576:A 0
*RES
1 *409:Y *576:A 48.9301 
*END

*D_NET *185 0.00154921
*CONN
*I *577:A I *D sg13g2_buf_1
*I *412:Y O *D sg13g2_nand3_1
*CAP
1 *577:A 3.31775e-05
2 *412:Y 0.000355522
3 *185:8 0.0003887
4 *577:A *200:51 0
5 *185:8 *191:10 0
6 *185:8 *207:48 0
7 *185:8 *207:110 0.00012816
8 *409:A2 *185:8 0.000178206
9 *150:23 *577:A 0
10 *156:10 *185:8 0
11 *167:10 *185:8 0.00033859
12 *167:12 *185:8 0.000126855
*RES
1 *412:Y *185:8 44.3054 
2 *185:8 *577:A 40.3193 
*END

*D_NET *186 0.0015254
*CONN
*I *578:A I *D sg13g2_buf_1
*I *415:Y O *D sg13g2_nand3_1
*CAP
1 *578:A 0.000423454
2 *415:Y 0.000423454
3 *578:A *581:A 0
4 *578:A *200:51 0
5 *578:A *202:73 0.000177157
6 *576:A *578:A 0
7 *156:14 *578:A 0.00050134
*RES
1 *415:Y *578:A 45.1809 
*END

*D_NET *187 0.00336559
*CONN
*I *579:A I *D sg13g2_buf_1
*I *503:Y O *D sg13g2_a21oi_1
*CAP
1 *579:A 0.000795285
2 *503:Y 0.000205956
3 *187:8 0.00100124
4 *579:A *197:31 0
5 *579:A *197:41 0.000165982
6 *579:A *199:80 0
7 *579:A *202:8 8.00842e-05
8 *579:A *202:26 0
9 *579:A *204:44 0.000112426
10 *579:A *218:49 0
11 *579:A *218:59 0
12 *385:B *187:8 0.000657241
13 *442:A2 *579:A 0
14 *464:B *579:A 0
15 *3:20 *579:A 0
16 *67:10 *579:A 0.000112541
17 *67:10 *187:8 0
18 *120:8 *187:8 0.00023483
*RES
1 *503:Y *187:8 43.0694 
2 *187:8 *579:A 47.3233 
*END

*D_NET *188 0.00410406
*CONN
*I *580:A I *D sg13g2_buf_1
*I *524:Y O *D sg13g2_a21oi_1
*CAP
1 *580:A 0
2 *524:Y 0
3 *188:12 0.00110118
4 *188:6 0.00110118
5 *188:12 *197:41 0
6 *188:12 *205:10 4.77425e-05
7 *188:12 *219:29 0
8 *188:12 *219:41 0.000928567
9 *443:A *188:12 0
10 *547:D *188:12 0
11 *3:12 *188:12 0
12 *16:10 *188:12 0.000240904
13 *17:10 *188:12 0
14 *49:8 *188:12 0.000288087
15 *50:8 *188:12 0
16 *60:22 *188:12 0
17 *62:10 *188:12 0.000396398
*RES
1 *524:Y *188:6 40 
2 *188:6 *188:12 34.6672 
3 *188:12 *580:A 20 
*END

*D_NET *189 0.0005238
*CONN
*I *581:A I *D sg13g2_buf_1
*I *525:Y O *D sg13g2_nor2_1
*CAP
1 *581:A 0.000254199
2 *525:Y 0.000254199
3 *581:A *202:73 0
4 *576:A *581:A 0
5 *578:A *581:A 0
6 *145:54 *581:A 1.54008e-05
*RES
1 *525:Y *581:A 42.7089 
*END

*D_NET *190 0.000952623
*CONN
*I *582:A I *D sg13g2_buf_1
*I *526:Y O *D sg13g2_nor3_1
*CAP
1 *582:A 0.000315888
2 *526:Y 0.000315888
3 *582:A *586:A 0
4 *582:A *202:56 0.000272934
5 *145:30 *582:A 0
6 *145:39 *582:A 4.79124e-05
*RES
1 *526:Y *582:A 43.2857 
*END

*D_NET *191 0.000418132
*CONN
*I *583:A I *D sg13g2_buf_1
*I *528:Y O *D sg13g2_nor3_1
*CAP
1 *583:A 3.31694e-05
2 *528:Y 0.000175897
3 *191:10 0.000209066
4 *583:A *200:51 0
5 *191:10 *225:8 0
6 *528:C *191:10 0
7 *141:8 *191:10 0
8 *150:23 *583:A 0
9 *185:8 *191:10 0
*RES
1 *528:Y *191:10 41.9364 
2 *191:10 *583:A 40.3193 
*END

*D_NET *192 0.0011274
*CONN
*I *584:A I *D sg13g2_buf_1
*I *529:Y O *D sg13g2_a21oi_1
*CAP
1 *584:A 0.000130519
2 *529:Y 0.000135239
3 *192:8 0.000265759
4 *584:A *590:A 4.75151e-05
5 *584:A *202:56 0
6 *192:8 *216:10 0.000340704
7 *576:A *584:A 0.000207661
8 *145:39 *584:A 0
*RES
1 *529:Y *192:8 41.8334 
2 *192:8 *584:A 41.4008 
*END

*D_NET *193 0.00182767
*CONN
*I *585:A I *D sg13g2_buf_1
*I *530:Y O *D sg13g2_a21oi_1
*CAP
1 *585:A 0.000438035
2 *530:Y 0.000322479
3 *193:10 0.000760514
4 *585:A *592:A 0
5 *585:A *594:A 0
6 *585:A *200:85 8.00842e-05
7 *585:A *200:100 0.000226555
8 *585:A *209:123 0
9 *193:10 *202:124 0
10 *193:10 *221:8 0
11 *403:A1 *585:A 0
12 *152:10 *585:A 0
13 *153:14 *585:A 0
14 *157:57 *585:A 0
15 *164:12 *193:10 0
16 *165:14 *193:10 0
17 *165:37 *585:A 0
18 *165:37 *193:10 0
*RES
1 *530:Y *193:10 43.2033 
2 *193:10 *585:A 44.3466 
*END

*D_NET *194 0.0013782
*CONN
*I *574:A I *D sg13g2_dlygate4sd3_1
*I *586:A I *D sg13g2_buf_1
*I *547:Q O *D sg13g2_dfrbpq_1
*CAP
1 *574:A 0
2 *586:A 0.000268314
3 *547:Q 0.000187089
4 *194:8 0.000455403
5 *586:A *590:A 1.54008e-05
6 *586:A *202:56 0
7 *586:A *220:10 0
8 sine_out[0] *586:A 0
9 sine_out[0] *194:8 0.000242125
10 *582:A *586:A 0
11 *5:8 *586:A 0.000209871
12 *5:8 *194:8 0
*RES
1 *547:Q *194:8 22.2145 
2 *194:8 *586:A 23.2445 
3 *194:8 *574:A 20 
*END

*D_NET *195 0.00103036
*CONN
*I *587:A I *D sg13g2_buf_1
*I *531:Y O *D sg13g2_a21oi_1
*CAP
1 *587:A 0.000426601
2 *531:Y 0.000426601
3 *587:A *386:B1 0
4 *587:A *594:A 0
5 *587:A *200:72 0.000177157
6 *587:A *200:100 0
7 *587:A *222:10 0
8 sine_out[8] *587:A 0
9 *398:A1 *587:A 0
10 *153:8 *587:A 0
*RES
1 *531:Y *587:A 44.6144 
*END

*D_NET *196 0.00235214
*CONN
*I *588:A I *D sg13g2_buf_1
*I *386:Y O *D sg13g2_a21oi_1
*CAP
1 *588:A 0.000354511
2 *386:Y 0.000554534
3 *196:8 0.000909044
4 *588:A *592:A 0
5 *588:A *218:39 0.000121741
6 *196:8 *387:A 0
7 *196:8 *200:72 0
8 *196:8 *202:92 0
9 *196:8 *202:124 0
10 *196:8 *223:16 0
11 *389:B *196:8 0
12 *398:A1 *196:8 7.34121e-05
13 *29:37 *196:8 0
14 *29:49 *588:A 0
15 *152:10 *588:A 0
16 *156:55 *196:8 0
17 *157:57 *588:A 0
18 *160:27 *196:8 0
19 *165:37 *196:8 0.000338897
*RES
1 *386:Y *196:8 45.5414 
2 *196:8 *588:A 43.5638 
*END

*D_NET *197 0.0181188
*CONN
*I *392:A I *D sg13g2_nor2_1
*I *404:A I *D sg13g2_nor2_1
*I *476:A I *D sg13g2_and2_1
*I *480:A I *D sg13g2_nor2_1
*I *413:A I *D sg13g2_nand2_1
*I *507:A1 I *D sg13g2_o21ai_1
*I *506:A1 I *D sg13g2_a21oi_1
*I *462:B1 I *D sg13g2_a21oi_1
*I *553:X O *D sg13g2_buf_1
*CAP
1 *392:A 0.000191019
2 *404:A 0.000165146
3 *476:A 0
4 *480:A 0
5 *413:A 0
6 *507:A1 0
7 *506:A1 0
8 *462:B1 0.000174328
9 *553:X 0
10 *197:108 0.00130187
11 *197:97 0.00100046
12 *197:93 0.00110327
13 *197:55 0.000285866
14 *197:45 0.000318002
15 *197:41 0.000975098
16 *197:31 0.00180974
17 *197:21 0.00091396
18 *197:19 0.00152566
19 *197:4 0.000604301
20 *197:19 *209:26 0.000232418
21 *197:31 *438:A_N 0
22 *197:31 *214:106 0
23 *197:31 *218:49 0.000144771
24 *197:31 *218:59 0.000208035
25 *197:31 *218:70 0
26 *197:41 *199:12 0
27 *197:41 *205:10 0
28 *197:55 *506:B1 1.54008e-05
29 *197:93 *209:52 0.000144542
30 *197:108 *387:B 0
31 *197:108 *484:B2 0.000106151
32 *197:108 *203:35 0
33 *197:108 *209:65 0
34 *197:108 *211:36 0.000332816
35 *392:B *392:A 0
36 *411:A2 *392:A 0.000112683
37 *443:A *197:41 0
38 *449:A *197:31 0
39 *464:B *197:41 0
40 *468:B2 *197:93 8.01118e-05
41 *468:B1 *197:93 0.000370994
42 *476:B *197:97 8.00842e-05
43 *476:B *197:108 1.54008e-05
44 *481:C *197:93 0
45 *484:A1 *197:108 0.000234176
46 *494:B1 *197:93 0
47 *494:A1 *462:B1 0
48 *494:A2 *462:B1 0
49 *496:A1 *197:19 0
50 *497:A *197:93 0
51 *497:C *197:93 0.000176018
52 *500:B *197:41 0
53 *524:B1 *197:55 0
54 *566:A *197:93 1.54556e-05
55 *579:A *197:31 0
56 *579:A *197:41 0.000165982
57 *16:10 *197:41 0
58 *29:49 *404:A 0
59 *60:22 *197:41 0
60 *66:36 *197:108 0
61 *69:8 *197:93 0
62 *69:20 *197:108 0
63 *71:8 *462:B1 0
64 *71:25 *462:B1 0.000208282
65 *76:33 *197:21 8.00842e-05
66 *76:33 *197:31 0.000495686
67 *76:33 *197:93 0.000143351
68 *83:18 *197:41 0
69 *84:26 *197:41 0.000447597
70 *86:16 *197:19 0.00012559
71 *94:8 *197:93 0
72 *98:8 *197:108 0
73 *102:10 *197:108 0
74 *107:31 *197:93 0
75 *112:12 *197:19 0
76 *114:14 *197:93 0
77 *122:8 *197:55 1.54008e-05
78 *122:18 *197:55 0.000437019
79 *141:8 *392:A 0
80 *149:25 *197:19 0
81 *150:31 *392:A 0
82 *156:36 *392:A 0
83 *163:21 *392:A 0.000158032
84 *163:21 *197:108 0.00102861
85 *163:38 *392:A 4.75151e-05
86 *163:38 *404:A 0
87 *163:53 *197:108 0
88 *164:12 *392:A 0
89 *164:12 *197:108 0
90 *165:14 *392:A 0
91 *165:14 *404:A 4.7885e-05
92 *165:37 *404:A 3.23417e-05
93 *170:14 *197:31 4.75525e-05
94 *170:14 *197:41 0.000245596
95 *170:42 *197:31 0.000225003
96 *180:43 *197:97 0
97 *181:10 *197:41 0.000658479
98 *181:39 *197:41 0.000871028
99 *188:12 *197:41 0
*RES
1 *553:X *197:4 20 
2 *197:4 *462:B1 21.751 
3 *197:4 *197:19 43.5638 
4 *197:19 *197:21 0.5356 
5 *197:21 *197:31 49.3936 
6 *197:31 *197:41 31.2579 
7 *197:41 *197:45 20.3193 
8 *197:45 *197:55 42.9046 
9 *197:55 *506:A1 20 
10 *197:45 *507:A1 20 
11 *197:31 *413:A 20 
12 *197:21 *480:A 20 
13 *197:19 *197:93 30.1558 
14 *197:93 *197:97 20.5356 
15 *197:97 *476:A 20 
16 *197:97 *197:108 30.7738 
17 *197:108 *404:A 41.4008 
18 *197:108 *392:A 42.06 
*END

*D_NET *198 0.0115207
*CONN
*I *431:B I *D sg13g2_nand2_1
*I *432:B I *D sg13g2_xnor2_1
*I *417:B I *D sg13g2_xnor2_1
*I *416:B I *D sg13g2_nand2_1
*I *420:B I *D sg13g2_and2_1
*I *428:B I *D sg13g2_xor2_1
*I *427:B I *D sg13g2_and2_1
*I *436:A I *D sg13g2_xnor2_1
*I *554:X O *D sg13g2_buf_1
*CAP
1 *431:B 0
2 *432:B 9.0282e-05
3 *417:B 2.77654e-05
4 *416:B 0.000239144
5 *420:B 0.000323127
6 *428:B 0
7 *427:B 0
8 *436:A 0.000347453
9 *554:X 8.34273e-05
10 *198:98 0.00040837
11 *198:63 0.000562271
12 *198:61 0.000368216
13 *198:59 0.00121481
14 *198:42 0.000900729
15 *198:35 0.000150526
16 *198:27 0.000682912
17 *198:19 0.00134521
18 *198:6 0.00095199
19 *416:B *212:105 0
20 *417:B *417:A 1.54008e-05
21 *420:B *219:87 0
22 *436:A *219:6 0
23 *436:A *219:18 0
24 *198:6 *199:18 0
25 *198:19 *204:32 0
26 *198:27 *199:31 0
27 *198:27 *199:33 0
28 *198:35 *427:A 4.77425e-05
29 *198:42 *199:33 4.77425e-05
30 *198:59 *424:A 6.46834e-05
31 *198:59 *425:A 0.000469085
32 *198:59 *199:33 0.000595734
33 *198:59 *199:40 6.46834e-05
34 *198:59 *219:87 0
35 *198:61 *212:105 0.000162099
36 *198:61 *212:113 8.02269e-05
37 *198:98 *204:10 0
38 *423:A1 *420:B 7.52158e-05
39 *423:A2 *420:B 4.77425e-05
40 *423:B1 *420:B 0
41 *430:A *198:59 0
42 *434:B *198:27 8.03692e-05
43 *435:B1 *198:98 1.51734e-05
44 *437:B *436:A 0
45 *543:D *420:B 0
46 *543:CLK *198:59 0
47 *543:CLK *198:61 0
48 *545:D *198:27 0
49 *545:CLK *198:27 0
50 *546:RESET_B *436:A 0.000112198
51 *546:RESET_B *198:6 9.58364e-05
52 *575:A *436:A 0
53 *51:10 *198:35 0.000285622
54 *53:10 *198:59 0
55 *55:8 *432:B 0
56 *55:8 *198:27 0
57 *55:8 *198:98 0
58 *56:6 *198:27 0
59 *172:8 *416:B 0
60 *174:8 *416:B 0.000394981
61 *174:8 *420:B 0.000319351
62 *176:10 *420:B 0.000181608
63 *177:16 *198:59 8.02269e-05
64 *177:16 *198:61 0
65 *177:24 *198:59 0.000339326
66 *179:6 *198:59 1.54556e-05
67 *181:12 *198:19 0
68 *183:10 *436:A 0
69 *183:10 *198:19 0.000233917
*RES
1 *554:X *198:6 20.7519 
2 *198:6 *436:A 23.2651 
3 *198:6 *198:19 24.5526 
4 *198:19 *198:27 25.3148 
5 *198:27 *198:35 41.6583 
6 *198:35 *427:B 20 
7 *198:27 *198:42 0.3193 
8 *198:42 *428:B 20 
9 *198:42 *198:59 49.8674 
10 *198:59 *198:61 3.3475 
11 *198:61 *198:63 20 
12 *198:63 *420:B 44.2333 
13 *198:63 *416:B 42.6471 
14 *198:61 *417:B 20.3193 
15 *198:19 *198:98 22.9149 
16 *198:98 *432:B 21.0918 
17 *198:98 *431:B 20 
*END

*D_NET *199 0.0127344
*CONN
*I *438:C I *D sg13g2_nand3b_1
*I *442:B1 I *D sg13g2_a21oi_1
*I *421:B I *D sg13g2_xor2_1
*I *424:B I *D sg13g2_nand2_1
*I *425:B I *D sg13g2_xnor2_1
*I *554:A I *D sg13g2_buf_1
*I *555:X O *D sg13g2_buf_1
*CAP
1 *438:C 5.89527e-05
2 *442:B1 7.98457e-05
3 *421:B 0.000181141
4 *424:B 0
5 *425:B 0
6 *554:A 0
7 *555:X 0.000730839
8 *199:80 0.000469987
9 *199:46 0.000115468
10 *199:40 0.00073833
11 *199:33 0.000942574
12 *199:31 0.00116072
13 *199:18 0.00173428
14 *199:12 0.00147406
15 *421:B *219:87 0
16 *438:C *438:A_N 1.53556e-05
17 *438:C *218:59 1.53556e-05
18 *199:12 *202:26 0.000498407
19 *199:18 *506:B1 0.00012816
20 *199:18 *201:34 0
21 *199:18 *202:26 0.000447183
22 *199:18 *204:32 0
23 *199:18 *208:20 0
24 *199:31 *427:A 0
25 *199:31 *208:29 0
26 *199:33 *428:A 0
27 *199:46 *210:78 0
28 *199:46 *212:113 0
29 *199:80 *202:12 0
30 *199:80 *202:26 0.000175649
31 *199:80 *202:44 0.000441819
32 *199:80 *206:58 0
33 *433:A2 *199:33 0
34 *443:A *199:12 4.68833e-05
35 *543:RESET_B *199:40 0.000144217
36 *543:D *421:B 0
37 *544:RESET_B *199:33 0.000240684
38 *579:A *199:80 0
39 *39:8 *199:18 0.00023547
40 *56:6 *199:33 0
41 *57:8 *199:31 0
42 *84:26 *199:18 0.000714003
43 *116:28 *199:18 0
44 *116:28 *199:31 0
45 *176:10 *421:B 4.78853e-05
46 *177:16 *421:B 0.000259039
47 *177:24 *421:B 1.54008e-05
48 *177:24 *199:40 0
49 *178:8 *199:46 0.000287343
50 *179:6 *199:40 0
51 *181:8 *442:B1 0.000112198
52 *181:10 *199:18 0
53 *183:10 *199:18 0.000126855
54 *183:14 *199:18 0
55 *183:27 *199:18 0
56 *183:27 *199:31 0.000388152
57 *197:41 *199:12 0
58 *198:6 *199:18 0
59 *198:27 *199:31 0
60 *198:27 *199:33 0
61 *198:42 *199:33 4.77425e-05
62 *198:59 *199:33 0.000595734
63 *198:59 *199:40 6.46834e-05
*RES
1 *555:X *199:12 43.1483 
2 *199:12 *199:18 31.0566 
3 *199:18 *554:A 20 
4 *199:18 *199:31 47.0349 
5 *199:31 *199:33 5.2942 
6 *199:33 *425:B 20 
7 *199:33 *199:40 3.9964 
8 *199:40 *199:46 41.5682 
9 *199:46 *424:B 20 
10 *199:40 *421:B 22.1836 
11 *199:12 *442:B1 40.7519 
12 *555:X *199:80 44.2539 
13 *199:80 *438:C 40.5356 
*END

*D_NET *200 0.0101627
*CONN
*I *386:B1 I *D sg13g2_a21oi_1
*I *406:B1 I *D sg13g2_a21oi_1
*I *389:A_N I *D sg13g2_nand2b_1
*I *397:B I *D sg13g2_or2_1
*I *407:B1 I *D sg13g2_o21ai_1
*I *409:B1 I *D sg13g2_o21ai_1
*I *412:A I *D sg13g2_nand3_1
*I *482:A I *D sg13g2_nor4_1
*I *556:X O *D sg13g2_buf_1
*CAP
1 *386:B1 2.77263e-05
2 *406:B1 0
3 *389:A_N 0
4 *397:B 0.000108781
5 *407:B1 9.29857e-05
6 *409:B1 0
7 *412:A 5.33351e-05
8 *482:A 2.83733e-05
9 *556:X 3.56637e-05
10 *200:100 0.000262687
11 *200:85 0.000318787
12 *200:72 0.000507866
13 *200:66 0.000804735
14 *200:51 0.000935394
15 *200:40 0.000745135
16 *200:25 0.000689608
17 *200:14 0.000332515
18 *200:8 0.000639328
19 *386:B1 *591:A 0
20 *407:B1 *225:8 0.00018091
21 *482:A *203:35 4.77425e-05
22 *200:25 *405:A 0
23 *200:25 *203:44 0
24 *200:25 *203:61 0.000235086
25 *200:40 *203:61 0.00031671
26 *200:66 *591:A 0.000242213
27 *200:66 *595:A 0
28 *200:66 *202:124 0
29 *200:66 *225:8 0.000106566
30 *200:72 *202:124 0
31 *200:72 *223:16 0.000498411
32 *200:100 *222:10 0.000288173
33 sine_out[12] *200:72 0
34 *386:A2 *200:66 0
35 *389:B *397:B 0
36 *389:B *200:72 0
37 *405:B *200:8 0
38 *405:B *200:25 0
39 *409:A2 *200:40 1.54282e-05
40 *472:B1 *412:A 4.77425e-05
41 *482:B *482:A 1.54008e-05
42 *528:C *200:51 0.000209756
43 *531:A1 *200:72 0
44 *531:A2 *200:51 8.00842e-05
45 *531:A2 *200:66 0
46 *531:B1 *200:66 0.000274325
47 *576:A *200:51 0
48 *577:A *200:51 0
49 *578:A *200:51 0
50 *583:A *200:51 0
51 *585:A *200:85 8.00842e-05
52 *585:A *200:100 0.000226555
53 *587:A *386:B1 0
54 *587:A *200:72 0.000177157
55 *587:A *200:100 0
56 *39:27 *200:14 0
57 *39:46 *482:A 0
58 *39:46 *200:14 0
59 *88:33 *200:8 7.51285e-05
60 *88:33 *200:25 0.000372152
61 *89:8 *200:25 0.000390282
62 *89:8 *200:40 7.48178e-05
63 *101:14 *200:14 0
64 *150:23 *200:40 0
65 *150:23 *200:51 0
66 *150:23 *200:66 0
67 *150:31 *407:B1 0
68 *152:10 *200:100 0.00018128
69 *156:14 *200:40 0
70 *156:14 *200:51 0
71 *156:55 *200:66 0
72 *160:27 *397:B 0.000128248
73 *160:27 *200:72 0.000315533
74 *165:20 *200:51 0
75 *165:37 *200:100 0
76 *167:10 *200:40 0
77 *196:8 *200:72 0
*RES
1 *556:X *200:8 40.3502 
2 *200:8 *200:14 42.9149 
3 *200:14 *482:A 40.3193 
4 *200:8 *200:25 3.811 
5 *200:25 *412:A 40.5356 
6 *200:25 *200:40 23.605 
7 *200:40 *409:B1 20 
8 *200:40 *200:51 23.977 
9 *200:51 *407:B1 41.0918 
10 *200:51 *200:66 24.5938 
11 *200:66 *200:72 24.6556 
12 *200:72 *397:B 41.0918 
13 *200:72 *200:85 20.5356 
14 *200:85 *389:A_N 20 
15 *200:85 *200:100 43.2754 
16 *200:100 *406:B1 20 
17 *200:66 *386:B1 20.3502 
*END

*D_NET *201 0.015466
*CONN
*I *483:A1 I *D sg13g2_a22oi_1
*I *415:B I *D sg13g2_nand3_1
*I *380:B I *D sg13g2_or2_1
*I *501:B1 I *D sg13g2_o21ai_1
*I *442:A1 I *D sg13g2_a21oi_1
*I *522:B1 I *D sg13g2_o21ai_1
*I *436:B I *D sg13g2_xnor2_1
*I *515:A I *D sg13g2_nor2_1
*I *557:X O *D sg13g2_buf_1
*CAP
1 *483:A1 0
2 *415:B 3.08008e-05
3 *380:B 9.93051e-05
4 *501:B1 0
5 *442:A1 0.000193573
6 *522:B1 6.14171e-05
7 *436:B 0
8 *515:A 3.30472e-05
9 *557:X 2.81507e-05
10 *201:113 0.000374265
11 *201:98 0.000626928
12 *201:94 0.000908039
13 *201:77 0.00138772
14 *201:66 0.000685146
15 *201:45 0.000364874
16 *201:34 0.000580047
17 *201:25 0.000448056
18 *201:8 0.000823609
19 *201:6 0.000800892
20 *380:B *526:A 0
21 *415:B *207:42 0
22 *442:A1 *202:26 0.000288377
23 *201:25 *219:18 2.22695e-05
24 *201:25 *219:29 0
25 *201:34 *506:B1 0
26 *201:34 *202:26 0
27 *201:34 *204:32 0.000394299
28 *201:34 *208:20 0.00018128
29 *201:45 *202:26 0
30 *201:77 *526:A 0.000160341
31 *201:77 *202:44 0
32 *201:77 *206:14 0.000234311
33 *201:77 *206:47 0.000159424
34 *201:77 *206:58 0.00122099
35 *201:77 *220:10 0.000768695
36 *201:94 *590:A 0
37 *201:113 *202:73 0.000287361
38 *201:113 *207:42 0
39 sine_out[15] *201:94 0
40 sine_out[4] *380:B 0.000143952
41 sine_out[4] *201:94 0
42 sine_out[6] *201:94 0
43 *385:B *201:113 0
44 *415:C *415:B 1.54008e-05
45 *439:A *201:77 0
46 *442:A2 *442:A1 0.000112198
47 *501:A2 *201:66 1.54008e-05
48 *501:A2 *201:77 0.000129562
49 *521:A *201:77 0.000233913
50 *522:A1 *522:B1 0
51 *524:A1 *201:8 0
52 *524:A2 *515:A 0
53 *524:B1 *201:8 0
54 *576:A *201:94 0
55 *35:27 *201:94 0
56 *35:33 *201:94 0.000499957
57 *39:12 *201:8 0.000143379
58 *83:18 *442:A1 0.000235153
59 *83:18 *201:66 7.52158e-05
60 *83:18 *201:77 0
61 *99:31 *201:34 0.000288172
62 *99:31 *201:45 0.000180812
63 *116:28 *201:34 0
64 *119:10 *201:66 1.54008e-05
65 *119:10 *201:77 0.000144771
66 *138:8 *201:45 0
67 *138:8 *201:66 0.000128576
68 *139:10 *522:B1 1.54285e-05
69 *143:27 *201:34 0
70 *145:8 *201:77 0
71 *145:54 *201:98 0.000181192
72 *150:8 *201:98 0.000338542
73 *150:23 *201:94 4.77425e-05
74 *150:23 *201:98 0.000341549
75 *156:14 *415:B 4.77425e-05
76 *156:14 *201:113 0.000241955
77 *170:14 *201:77 0.00055109
78 *181:8 *442:A1 0.000175693
79 *199:18 *201:34 0
*RES
1 *557:X *201:6 20.3502 
2 *201:6 *201:8 3.3475 
3 *201:8 *515:A 20.3193 
4 *201:8 *201:25 44.7277 
5 *201:25 *436:B 20 
6 *201:6 *201:34 24.7998 
7 *201:34 *522:B1 40.5356 
8 *201:34 *201:45 1.0918 
9 *201:45 *442:A1 42.8428 
10 *201:45 *201:66 21.236 
11 *201:66 *501:B1 20 
12 *201:66 *201:77 30.9592 
13 *201:77 *380:B 40.9682 
14 *201:77 *201:94 47.0967 
15 *201:94 *201:98 23.3166 
16 *201:98 *415:B 20.3193 
17 *201:98 *201:113 44.1921 
18 *201:113 *483:A1 20 
*END

*D_NET *202 0.0142401
*CONN
*I *380:A I *D sg13g2_or2_1
*I *386:A1 I *D sg13g2_a21oi_1
*I *394:A I *D sg13g2_and2_1
*I *387:A I *D sg13g2_nand2_1
*I *472:A1 I *D sg13g2_o21ai_1
*I *415:A I *D sg13g2_nand3_1
*I *500:A I *D sg13g2_nand3_1
*I *375:A I *D sg13g2_inv_1
*I *558:X O *D sg13g2_buf_1
*CAP
1 *380:A 0
2 *386:A1 0
3 *394:A 6.00524e-05
4 *387:A 0.000304626
5 *472:A1 0
6 *415:A 0
7 *500:A 0
8 *375:A 0
9 *558:X 5.61002e-05
10 *202:124 0.00040472
11 *202:92 0.000442621
12 *202:88 0.00119233
13 *202:86 0.00108402
14 *202:73 0.000779793
15 *202:56 0.00101596
16 *202:44 0.00120298
17 *202:26 0.000750876
18 *202:12 0.000890515
19 *202:8 0.000788204
20 *387:A *387:B 0
21 *202:12 *204:44 0
22 *202:44 *206:58 0
23 *202:56 *590:A 0
24 *202:56 *216:10 0
25 *202:86 *203:61 7.33256e-05
26 *202:86 *207:42 4.69877e-05
27 *202:88 *209:67 0
28 *202:88 *209:75 0
29 *202:88 *209:123 0
30 *202:124 *209:123 0
31 *202:124 *221:8 0.000444701
32 *202:124 *223:16 0
33 sine_out[4] *202:56 0
34 *386:A2 *202:124 4.77702e-05
35 *439:A *202:44 0.000231845
36 *442:A1 *202:26 0.000288377
37 *464:B *202:26 4.77699e-05
38 *467:B1 *202:26 4.77425e-05
39 *472:B1 *202:86 0
40 *472:A2 *202:73 4.77699e-05
41 *488:B1 *387:A 0
42 *500:B *202:26 4.74605e-05
43 *521:A *202:26 0
44 *578:A *202:73 0.000177157
45 *579:A *202:8 8.00842e-05
46 *579:A *202:26 0
47 *581:A *202:73 0
48 *582:A *202:56 0.000272934
49 *584:A *202:56 0
50 *586:A *202:56 0
51 *29:49 *394:A 0
52 *83:18 *202:26 0
53 *143:27 *202:26 0.000111711
54 *145:8 *202:44 0.000179556
55 *145:39 *202:56 0
56 *145:39 *202:73 1.54008e-05
57 *145:54 *202:73 6.46834e-05
58 *145:54 *202:88 0
59 *151:12 *387:A 0.000111761
60 *151:36 *387:A 3.23694e-05
61 *156:14 *202:56 0.000111999
62 *156:20 *202:44 0.000126859
63 *156:55 *202:124 0.000338033
64 *159:52 *202:88 0
65 *163:53 *387:A 0.000285421
66 *163:53 *202:92 0.000105753
67 *165:37 *394:A 7.94462e-05
68 *165:37 *202:92 0
69 *165:37 *202:124 0
70 *193:10 *202:124 0
71 *196:8 *387:A 0
72 *196:8 *202:92 0
73 *196:8 *202:124 0
74 *199:12 *202:26 0.000498407
75 *199:18 *202:26 0.000447183
76 *199:80 *202:12 0
77 *199:80 *202:26 0.000175649
78 *199:80 *202:44 0.000441819
79 *200:66 *202:124 0
80 *200:72 *202:124 0
81 *201:34 *202:26 0
82 *201:45 *202:26 0
83 *201:77 *202:44 0
84 *201:113 *202:73 0.000287361
*RES
1 *558:X *202:8 40.5356 
2 *202:8 *202:12 21.0918 
3 *202:12 *202:26 48.858 
4 *202:26 *375:A 20 
5 *202:12 *500:A 20 
6 *202:8 *202:44 26.9216 
7 *202:44 *202:56 45.5414 
8 *202:56 *415:A 20 
9 *202:56 *202:73 44.3672 
10 *202:73 *472:A1 20 
11 *202:73 *202:86 43.4814 
12 *202:86 *202:88 7.8898 
13 *202:88 *202:92 20.8446 
14 *202:92 *387:A 43.296 
15 *202:92 *394:A 40.5356 
16 *202:88 *202:124 45.2324 
17 *202:124 *386:A1 20 
18 *202:44 *380:A 20 
*END

*D_NET *203 0.00888517
*CONN
*I *408:A I *D sg13g2_or2_1
*I *407:A1 I *D sg13g2_o21ai_1
*I *410:B I *D sg13g2_nor2_1
*I *458:B I *D sg13g2_nand2b_1
*I *489:A I *D sg13g2_nor2b_1
*I *559:X O *D sg13g2_buf_1
*CAP
1 *408:A 0
2 *407:A1 0.00051263
3 *410:B 0.00010361
4 *458:B 0
5 *489:A 0.000191071
6 *559:X 6.19269e-05
7 *203:61 0.000807459
8 *203:44 0.000631787
9 *203:35 0.000874979
10 *203:23 0.00161107
11 *203:8 0.000755744
12 *407:A1 *408:B 4.77425e-05
13 *407:A1 *528:A 0
14 *407:A1 *207:42 0.000112453
15 *203:35 *387:B 0.000286284
16 *203:61 *207:42 0
17 *392:B *407:A1 0
18 *412:C *407:A1 0
19 *442:A2 *203:35 0.000273624
20 *473:B *203:35 0
21 *482:A *203:35 4.77425e-05
22 *482:B *203:35 1.54008e-05
23 *488:B1 *203:35 0.000273624
24 *494:B1 *489:A 8.01116e-05
25 *494:B1 *203:8 0
26 *528:C *407:A1 0
27 *531:A2 *407:A1 0
28 *566:A *489:A 0.000232209
29 *566:A *203:8 0
30 *566:A *203:23 0.000103961
31 *29:63 *410:B 0.0001122
32 *39:46 *203:35 0
33 *85:8 *203:23 0
34 *88:33 *203:23 0.000231238
35 *88:33 *203:44 0.000395177
36 *113:12 *203:23 0
37 *115:8 *203:23 0
38 *150:31 *407:A1 1.54556e-05
39 *156:10 *407:A1 0.000145025
40 *162:24 *489:A 0
41 *162:24 *203:23 0
42 *164:27 *203:35 0
43 *166:21 *203:35 8.00842e-05
44 *166:34 *203:35 0.000257433
45 *167:8 *203:61 0
46 *197:108 *203:35 0
47 *200:25 *203:44 0
48 *200:25 *203:61 0.000235086
49 *200:40 *203:61 0.00031671
50 *202:86 *203:61 7.33256e-05
*RES
1 *559:X *203:8 40.5356 
2 *203:8 *489:A 42.163 
3 *203:8 *203:23 4.7998 
4 *203:23 *203:35 49.064 
5 *203:35 *458:B 40 
6 *203:23 *203:44 2.8222 
7 *203:44 *410:B 40.9682 
8 *203:44 *203:61 23.6462 
9 *203:61 *407:A1 25.047 
10 *203:61 *408:A 20 
*END

*D_NET *204 0.017248
*CONN
*I *506:B1 I *D sg13g2_a21oi_1
*I *456:B1 I *D sg13g2_a21oi_1
*I *559:A I *D sg13g2_buf_1
*I *513:B1 I *D sg13g2_o21ai_1
*I *520:B1 I *D sg13g2_a21oi_1
*I *558:A I *D sg13g2_buf_1
*I *431:A I *D sg13g2_nand2_1
*I *432:A I *D sg13g2_xnor2_1
*I *560:X O *D sg13g2_buf_1
*CAP
1 *506:B1 0.000191385
2 *456:B1 0
3 *559:A 0
4 *513:B1 0
5 *520:B1 6.47291e-05
6 *558:A 0
7 *431:A 0
8 *432:A 0
9 *560:X 2.36794e-05
10 *204:104 0.000711127
11 *204:91 0.000128756
12 *204:85 0.00109846
13 *204:74 0.000444269
14 *204:57 0.000636425
15 *204:53 0.00112373
16 *204:44 0.000726719
17 *204:36 0.00182233
18 *204:32 0.00156302
19 *204:16 0.00010955
20 *204:10 0.000512941
21 *204:6 0.00144081
22 *204:16 *219:18 0.000395568
23 *204:32 *208:20 0
24 *204:32 *208:29 0
25 *204:44 *206:31 0
26 *204:44 *208:61 0.000337468
27 *204:85 *207:60 4.8158e-05
28 *204:91 *211:8 0
29 *204:104 *207:60 9.82404e-05
30 *204:104 *207:75 0.00110084
31 *435:B1 *204:6 0
32 *435:B1 *204:10 0
33 *437:A *204:10 0
34 *507:B1 *506:B1 0
35 *513:A2 *204:74 1.54008e-05
36 *520:A1 *520:B1 0
37 *520:A1 *204:74 0
38 *520:A2 *204:74 0
39 *544:CLK *204:6 4.75166e-05
40 *544:CLK *204:10 0.000175809
41 *566:A *204:57 0.000391206
42 *566:A *204:74 0
43 *566:A *204:85 0.000231766
44 *579:A *204:44 0.000112426
45 *35:27 *204:44 0
46 *39:23 *204:44 0.00134538
47 *48:8 *204:32 0.000285799
48 *57:8 *204:32 0.000235153
49 *65:38 *204:104 0
50 *68:38 *520:B1 0
51 *68:38 *204:74 0
52 *78:16 *204:104 0
53 *84:26 *506:B1 7.9225e-05
54 *85:8 *204:85 7.55443e-05
55 *118:8 *204:44 0
56 *119:10 *204:44 0.000231845
57 *126:12 *204:74 0
58 *126:18 *204:74 0.00044185
59 *130:10 *204:74 1.54008e-05
60 *131:10 *204:36 0
61 *131:10 *204:53 0
62 *142:14 *204:53 0
63 *142:42 *204:57 0
64 *142:50 *204:53 0.00037416
65 *159:22 *204:85 0
66 *162:24 *204:74 7.34783e-05
67 *162:24 *204:91 0
68 *180:19 *204:53 0
69 *180:39 *204:53 0
70 *180:39 *204:85 0
71 *180:39 *204:104 0
72 *183:10 *204:32 0
73 *183:27 *204:32 0
74 *197:55 *506:B1 1.54008e-05
75 *198:19 *204:32 0
76 *198:98 *204:10 0
77 *199:18 *506:B1 0.00012816
78 *199:18 *204:32 0
79 *201:34 *506:B1 0
80 *201:34 *204:32 0.000394299
81 *202:12 *204:44 0
*RES
1 *560:X *204:6 20.3193 
2 *204:6 *204:10 3.3905 
3 *204:10 *204:16 41.8334 
4 *204:16 *432:A 20 
5 *204:10 *431:A 20 
6 *204:6 *204:32 29.3215 
7 *204:32 *204:36 23.5638 
8 *204:36 *204:44 48.5181 
9 *204:44 *558:A 20 
10 *204:36 *204:53 27.8898 
11 *204:53 *204:57 21.8334 
12 *204:57 *520:B1 20.5356 
13 *204:57 *204:74 44.326 
14 *204:74 *513:B1 20 
15 *204:53 *204:85 22.7089 
16 *204:85 *204:91 40.8446 
17 *204:91 *559:A 20 
18 *204:85 *204:104 48.0237 
19 *204:104 *456:B1 20 
20 *204:32 *506:B1 41.9158 
*END

*D_NET *205 0.002767
*CONN
*I *589:A I *D sg13g2_buf_1
*I *440:A I *D sg13g2_xnor2_1
*I *378:Y O *D sg13g2_inv_1
*CAP
1 *589:A 0.000152981
2 *440:A 0
3 *378:Y 0.000475947
4 *205:10 0.000628928
5 *589:A *220:10 4.77702e-05
6 *205:10 *378:A 0.00043304
7 sine_out[1] *589:A 0
8 *413:B *205:10 0.000207845
9 *440:B *205:10 0
10 *17:10 *589:A 0
11 *17:10 *205:10 0
12 *27:10 *589:A 0.000181192
13 *27:10 *205:10 0.000448012
14 *170:14 *205:10 0.000143544
15 *188:12 *205:10 4.77425e-05
16 *197:41 *205:10 0
*RES
1 *378:Y *205:10 45.6444 
2 *205:10 *440:A 40 
3 *205:10 *589:A 41.9055 
*END

*D_NET *206 0.011373
*CONN
*I *526:A I *D sg13g2_nor3_1
*I *381:B I *D sg13g2_nor2_1
*I *471:B1 I *D sg13g2_a21oi_1
*I *473:A I *D sg13g2_nand3_1
*I *464:A I *D sg13g2_nand2_1
*I *465:A I *D sg13g2_nand3_1
*I *457:B I *D sg13g2_nor2_1
*I *499:A I *D sg13g2_nor3_1
*I *561:X O *D sg13g2_buf_1
*CAP
1 *526:A 0.000176287
2 *381:B 0
3 *471:B1 0
4 *473:A 0
5 *464:A 9.81942e-05
6 *465:A 0.000225119
7 *457:B 0
8 *499:A 0.00012583
9 *561:X 0.000290224
10 *206:80 0.000426881
11 *206:72 0.000786502
12 *206:64 0.000661742
13 *206:58 0.000917364
14 *206:47 0.000609532
15 *206:31 0.000242746
16 *206:23 0.00060744
17 *206:14 0.000513305
18 *206:10 0.000610506
19 *206:31 *208:61 0.000502829
20 *206:72 *209:85 8.00842e-05
21 *206:80 *216:10 0
22 *206:80 *218:47 0.000273809
23 *206:80 *218:49 1.53835e-05
24 *380:B *526:A 0
25 *385:A *206:64 0
26 *385:A *206:72 0
27 *414:B *206:72 0
28 *439:A *526:A 0
29 *439:A *206:64 7.99942e-05
30 *440:B *206:64 0.00011157
31 *442:A2 *464:A 0.000176508
32 *442:A2 *206:10 0
33 *472:A2 *206:72 0
34 *500:B *464:A 0.000176508
35 *502:B *206:10 0.000175693
36 *521:B *206:10 4.68848e-05
37 *29:63 *206:80 4.77699e-05
38 *39:23 *206:31 0
39 *76:10 *206:14 0.000659649
40 *76:33 *206:10 0.000272859
41 *84:8 *465:A 0.000208227
42 *84:8 *206:23 1.54008e-05
43 *84:16 *499:A 0
44 *99:31 *499:A 0
45 *117:16 *499:A 8.00764e-05
46 *117:16 *206:14 0
47 *118:8 *206:58 0
48 *143:27 *499:A 8.01995e-05
49 *156:14 *526:A 1.53556e-05
50 *156:14 *206:64 0
51 *171:22 *206:64 0.000287511
52 *171:22 *206:72 0
53 *180:23 *465:A 0
54 *199:80 *206:58 0
55 *201:77 *526:A 0.000160341
56 *201:77 *206:14 0.000234311
57 *201:77 *206:47 0.000159424
58 *201:77 *206:58 0.00122099
59 *202:44 *206:58 0
60 *204:44 *206:31 0
*RES
1 *561:X *206:10 42.8325 
2 *206:10 *206:14 23.3166 
3 *206:14 *499:A 21.1845 
4 *206:14 *206:23 1.1845 
5 *206:23 *206:31 42.678 
6 *206:31 *457:B 20 
7 *206:23 *465:A 22.1836 
8 *206:10 *206:47 0.8446 
9 *206:47 *464:A 41.1845 
10 *206:47 *206:58 5.7886 
11 *206:58 *206:64 23.2651 
12 *206:64 *206:72 3.5638 
13 *206:72 *206:80 43.914 
14 *206:80 *473:A 20 
15 *206:72 *471:B1 20 
16 *206:64 *381:B 20 
17 *206:58 *526:A 42.0291 
*END

*D_NET *207 0.0167386
*CONN
*I *528:A I *D sg13g2_nor3_1
*I *408:B I *D sg13g2_or2_1
*I *387:B I *D sg13g2_nand2_1
*I *458:A_N I *D sg13g2_nand2b_1
*I *451:B1 I *D sg13g2_o21ai_1
*I *489:B_N I *D sg13g2_nor2b_1
*I *529:A1 I *D sg13g2_a21oi_1
*I *561:A I *D sg13g2_buf_1
*I *562:X O *D sg13g2_buf_1
*CAP
1 *528:A 0.000223971
2 *408:B 2.6911e-05
3 *387:B 0.000408272
4 *458:A_N 3.18461e-05
5 *451:B1 0
6 *489:B_N 0
7 *529:A1 0
8 *561:A 7.08019e-05
9 *562:X 5.20709e-05
10 *207:110 0.000288908
11 *207:86 0.000884396
12 *207:75 0.000633131
13 *207:60 0.000105145
14 *207:52 0.00125653
15 *207:48 0.0015979
16 *207:44 0.000673389
17 *207:42 0.000992995
18 *207:23 0.00188064
19 *207:8 0.00101051
20 *387:B *218:39 0.000305703
21 *207:52 *209:52 0
22 *207:52 *211:8 0.000547762
23 *385:A *207:42 7.98484e-05
24 *385:B *207:42 0
25 *387:A *387:B 0
26 *407:A1 *408:B 4.77425e-05
27 *407:A1 *528:A 0
28 *407:A1 *207:42 0.000112453
29 *411:B1 *207:48 0.000263809
30 *412:C *207:42 0.000112453
31 *414:A *207:23 0.000212215
32 *415:B *207:42 0
33 *415:C *207:42 0.000255649
34 *455:A2 *207:75 0
35 *456:A1 *207:75 1.54285e-05
36 *470:A *207:48 0.000177896
37 *472:A2 *207:42 0
38 *477:A *207:52 0
39 *497:A *207:48 0
40 *497:A *207:52 0
41 *528:C *528:A 0
42 *35:27 *207:23 0
43 *39:46 *458:A_N 4.77425e-05
44 *39:46 *207:86 0.00024286
45 *61:8 *207:48 0
46 *64:14 *207:75 0
47 *65:38 *207:75 0
48 *69:24 *207:75 4.77702e-05
49 *76:33 *561:A 0.000112454
50 *95:8 *207:52 0
51 *96:8 *207:48 0
52 *96:8 *207:52 0
53 *97:8 *207:75 0.000180721
54 *99:10 *561:A 0
55 *100:8 *207:52 0
56 *101:8 *207:48 0
57 *110:16 *458:A_N 0
58 *144:52 *207:8 0.000128576
59 *144:52 *207:23 0.000975613
60 *151:12 *387:B 0.000273333
61 *151:36 *387:B 4.77702e-05
62 *156:14 *528:A 0
63 *156:14 *207:23 8.02269e-05
64 *156:14 *207:42 0.000272963
65 *159:22 *207:60 0.000146752
66 *159:22 *207:75 0.00013031
67 *159:52 *207:48 0
68 *162:24 *207:52 0
69 *162:24 *207:60 7.44237e-05
70 *164:27 *387:B 0
71 *167:12 *207:48 0
72 *170:42 *207:23 0
73 *171:22 *207:42 0
74 *185:8 *207:48 0
75 *185:8 *207:110 0.00012816
76 *197:108 *387:B 0
77 *201:113 *207:42 0
78 *202:86 *207:42 4.69877e-05
79 *203:35 *387:B 0.000286284
80 *203:61 *207:42 0
81 *204:85 *207:60 4.8158e-05
82 *204:104 *207:60 9.82404e-05
83 *204:104 *207:75 0.00110084
*RES
1 *562:X *207:8 40.5974 
2 *207:8 *561:A 40.7519 
3 *207:8 *207:23 28.549 
4 *207:23 *529:A1 20 
5 *207:23 *207:42 49.9395 
6 *207:42 *207:44 20 
7 *207:44 *207:48 6.1079 
8 *207:48 *207:52 25.2942 
9 *207:52 *207:60 41.3184 
10 *207:60 *489:B_N 20 
11 *207:52 *207:75 47.9722 
12 *207:75 *451:B1 20 
13 *207:48 *207:86 45.0779 
14 *207:86 *458:A_N 40.3193 
15 *207:86 *387:B 44.8719 
16 *207:44 *207:110 20.5974 
17 *207:110 *408:B 20.3193 
18 *207:110 *528:A 21.9673 
*END

*D_NET *208 0.0165718
*CONN
*I *454:A I *D sg13g2_nor3_1
*I *514:A1 I *D sg13g2_a21oi_1
*I *509:A I *D sg13g2_or2_1
*I *517:A I *D sg13g2_and2_1
*I *562:A I *D sg13g2_buf_1
*I *428:A I *D sg13g2_xor2_1
*I *427:A I *D sg13g2_and2_1
*I *505:A1 I *D sg13g2_o21ai_1
*I *563:X O *D sg13g2_buf_1
*CAP
1 *454:A 0.000912043
2 *514:A1 0
3 *509:A 0
4 *517:A 0.000132864
5 *562:A 0
6 *428:A 7.8589e-05
7 *427:A 0.000344359
8 *505:A1 0
9 *563:X 2.3193e-05
10 *208:119 0.00111855
11 *208:106 0.000577951
12 *208:99 0.000190396
13 *208:93 0.00118474
14 *208:72 0.00094934
15 *208:61 0.00074748
16 *208:29 0.00118434
17 *208:20 0.000389401
18 *208:10 0.00120426
19 *208:8 0.000881824
20 *208:6 0.000297652
21 *454:A *217:53 8.00842e-05
22 *208:29 *210:32 0
23 *208:61 *214:97 0
24 *208:93 *516:B 0
25 *208:93 *210:45 0.000175285
26 *208:93 *210:55 0
27 *208:93 *217:20 0.000126466
28 *208:99 *210:10 0.000260875
29 *208:99 *210:16 7.55811e-05
30 *208:99 *212:43 0.000179542
31 *208:106 *215:36 0
32 *383:A *208:93 0.000110302
33 *383:B *208:93 0.000612274
34 *383:B *208:106 0.000258223
35 *433:A1 *208:29 0
36 *447:B *208:119 2.21831e-05
37 *454:B *454:A 0
38 *455:A2 *454:A 0
39 *455:B1 *454:A 0
40 *475:A_N *208:119 0
41 *500:C *208:61 0.000286343
42 *505:A2 *208:20 1.54008e-05
43 *512:A2 *454:A 0
44 *514:A2 *208:119 0
45 *514:B1 *208:106 0
46 *516:C *517:A 0
47 *516:C *208:72 0
48 *517:B *517:A 4.63397e-05
49 *518:A1 *208:72 4.78853e-05
50 *518:A1 *208:93 0
51 *520:A2 *208:93 1.54008e-05
52 *520:A2 *208:106 0.000208941
53 *523:A2 *208:93 0
54 *524:B1 *208:20 4.77425e-05
55 *544:CLK *428:A 0
56 *563:A *208:8 0
57 *563:A *208:72 7.90513e-05
58 *566:A *208:99 0
59 *35:12 *208:29 0
60 *35:27 *208:61 0
61 *38:8 *427:A 0
62 *39:12 *208:20 0
63 *39:23 *208:20 0
64 *51:10 *427:A 0
65 *65:38 *454:A 0.000112596
66 *66:36 *454:A 0.000208853
67 *68:38 *208:93 0
68 *76:10 *208:61 0
69 *84:16 *208:61 0.000390597
70 *88:12 *208:99 0
71 *99:10 *208:61 0.000272938
72 *116:28 *208:20 0.000499854
73 *116:28 *208:29 0
74 *116:28 *208:61 0
75 *139:10 *208:61 0
76 *142:10 *208:93 0
77 *144:12 *208:93 0.000141818
78 *144:20 *208:61 7.41702e-05
79 *147:22 *208:106 0.000274297
80 *154:21 *208:119 0.000390273
81 *157:26 *454:A 0
82 *157:26 *208:106 1.54008e-05
83 *157:26 *208:119 8.00842e-05
84 *161:12 *454:A 0
85 *161:23 *454:A 0.000176741
86 *198:35 *427:A 4.77425e-05
87 *199:18 *208:20 0
88 *199:31 *427:A 0
89 *199:31 *208:29 0
90 *199:33 *428:A 0
91 *201:34 *208:20 0.00018128
92 *204:32 *208:20 0
93 *204:32 *208:29 0
94 *204:44 *208:61 0.000337468
95 *206:31 *208:61 0.000502829
*RES
1 *563:X *208:6 20.3502 
2 *208:6 *208:8 0.7519 
3 *208:8 *208:10 0.5356 
4 *208:10 *208:20 44.4805 
5 *208:20 *505:A1 20 
6 *208:10 *208:29 27.2718 
7 *208:29 *427:A 43.2651 
8 *208:29 *428:A 40.7519 
9 *208:8 *208:61 49.4966 
10 *208:61 *562:A 20 
11 *208:6 *208:72 2.3175 
12 *208:72 *517:A 21.6995 
13 *208:72 *208:93 46.6435 
14 *208:93 *208:99 42.3278 
15 *208:99 *509:A 20 
16 *208:93 *208:106 3.9964 
17 *208:106 *514:A1 20 
18 *208:106 *208:119 42.369 
19 *208:119 *454:A 28.8374 
*END

*D_NET *209 0.0136214
*CONN
*I *397:A I *D sg13g2_or2_1
*I *410:A I *D sg13g2_nor2_1
*I *405:A I *D sg13g2_nand2_1
*I *471:A1 I *D sg13g2_a21oi_1
*I *381:A I *D sg13g2_nor2_1
*I *446:A I *D sg13g2_nor2_1
*I *466:A I *D sg13g2_nand2_1
*I *496:B1 I *D sg13g2_a21oi_1
*I *564:X O *D sg13g2_buf_1
*CAP
1 *397:A 0
2 *410:A 0
3 *405:A 0.000172666
4 *471:A1 0
5 *381:A 0
6 *446:A 0
7 *466:A 2.78013e-05
8 *496:B1 0
9 *564:X 0
10 *209:123 0.000690081
11 *209:97 0.000172666
12 *209:85 0.000344583
13 *209:75 0.000824067
14 *209:67 0.000875491
15 *209:65 0.00174588
16 *209:52 0.00169169
17 *209:26 9.50639e-05
18 *209:18 0.000557155
19 *209:8 0.000689532
20 *209:4 0.00123154
21 *209:8 *564:A 0
22 *209:52 *564:A 0
23 *209:52 *211:8 0
24 *209:52 *211:25 0.000111685
25 *209:85 *438:A_N 0.000208049
26 *209:123 *222:10 0
27 *209:123 *223:16 0
28 *385:B *209:75 0
29 *414:B *209:85 1.54008e-05
30 *447:B *209:52 0.000209614
31 *466:B *466:A 0
32 *466:B *209:8 0
33 *477:A *209:52 8.02269e-05
34 *484:A1 *209:65 0
35 *494:B1 *466:A 8.01116e-05
36 *494:B1 *209:8 0
37 *494:B1 *209:18 0.000144257
38 *494:B1 *209:52 0
39 *495:A *209:18 0.000234282
40 *497:A *405:A 0.000181608
41 *585:A *209:123 0
42 *29:37 *209:123 4.85985e-05
43 *29:63 *209:75 3.23694e-05
44 *29:63 *209:85 1.54008e-05
45 *41:60 *209:65 0
46 *63:35 *209:65 0.000288173
47 *65:6 *209:65 1.54008e-05
48 *68:54 *209:52 0.00017812
49 *69:8 *209:52 0
50 *69:20 *209:52 0
51 *71:25 *209:8 0
52 *71:25 *209:18 0
53 *77:22 *209:52 0.000112228
54 *77:22 *209:65 3.24568e-05
55 *85:8 *209:18 0
56 *89:8 *405:A 0.000284403
57 *98:8 *209:65 0
58 *101:14 *209:67 0
59 *101:14 *209:75 0
60 *107:31 *209:52 0
61 *112:12 *209:26 0.000230691
62 *114:14 *209:18 0
63 *152:10 *209:123 0
64 *157:57 *209:123 0.00015341
65 *163:21 *209:65 0
66 *166:34 *209:65 0.000605042
67 *167:12 *405:A 0.000367955
68 *167:31 *209:65 0.00023464
69 *170:42 *209:85 0
70 *171:8 *209:85 0.000182023
71 *180:11 *209:18 0
72 *180:19 *209:18 0
73 *197:19 *209:26 0.000232418
74 *197:93 *209:52 0.000144542
75 *197:108 *209:65 0
76 *200:25 *405:A 0
77 *202:88 *209:67 0
78 *202:88 *209:75 0
79 *202:88 *209:123 0
80 *202:124 *209:123 0
81 *206:72 *209:85 8.00842e-05
82 *207:52 *209:52 0
*RES
1 *564:X *209:4 20 
2 *209:4 *209:8 1.9632 
3 *209:8 *209:18 44.5423 
4 *209:18 *209:26 41.4111 
5 *209:26 *496:B1 20 
6 *209:8 *466:A 20.5356 
7 *209:4 *209:52 48.9822 
8 *209:52 *446:A 20 
9 *209:52 *209:65 47.0967 
10 *209:65 *209:67 4.2127 
11 *209:67 *209:75 45.8298 
12 *209:75 *209:85 43.4608 
13 *209:85 *381:A 20 
14 *209:75 *471:A1 20 
15 *209:67 *209:97 20 
16 *209:97 *405:A 42.575 
17 *209:97 *410:A 40 
18 *209:65 *209:123 47.9413 
19 *209:123 *397:A 20 
*END

*D_NET *210 0.0105411
*CONN
*I *510:A I *D sg13g2_and3_1
*I *453:B1 I *D sg13g2_a21oi_1
*I *424:A I *D sg13g2_nand2_1
*I *425:A I *D sg13g2_xnor2_1
*I *508:B1 I *D sg13g2_a21oi_1
*I *374:A I *D sg13g2_inv_1
*I *493:B1 I *D sg13g2_a21oi_1
*I *498:A I *D sg13g2_nor2_1
*I *565:X O *D sg13g2_buf_1
*CAP
1 *510:A 8.36351e-05
2 *453:B1 0.000478125
3 *424:A 4.68241e-05
4 *425:A 0.000403504
5 *508:B1 3.14392e-05
6 *374:A 0
7 *493:B1 0
8 *498:A 0
9 *565:X 0.000125749
10 *210:104 0.00059631
11 *210:100 0.000570474
12 *210:78 0.000868448
13 *210:55 0.00021474
14 *210:45 0.000534464
15 *210:32 0.000672718
16 *210:24 0.00119
17 *210:18 0.000440033
18 *210:16 0.000767721
19 *210:10 0.000800235
20 *453:B1 *453:A1 7.79576e-05
21 *453:B1 *453:A2 0
22 *453:B1 *215:36 0.000112455
23 *508:B1 *212:51 0
24 *210:16 *212:43 0
25 *210:16 *213:33 0
26 *210:18 *212:51 0
27 *210:18 *213:33 0
28 *210:18 *213:35 6.4771e-05
29 *210:24 *212:51 0.000144843
30 *210:24 *212:66 0.000127878
31 *210:24 *213:35 0.000209899
32 *210:24 *213:70 0
33 *210:45 *212:66 0.000103961
34 *210:55 *217:20 2.16749e-05
35 *210:78 *212:43 0.000234177
36 *210:104 *215:36 3.15716e-05
37 *460:A *210:104 0
38 *509:B *508:B1 0
39 *509:B *210:18 0
40 *514:A2 *453:B1 0
41 *518:A2 *210:55 0
42 *523:A2 *210:55 4.35199e-05
43 *543:CLK *425:A 0
44 *31:45 *453:B1 0
45 *33:10 *210:10 0.000178758
46 *33:10 *210:16 0.000181325
47 *88:12 *210:10 4.77425e-05
48 *142:10 *210:45 1.54008e-05
49 *155:10 *210:45 0
50 *155:10 *210:55 0
51 *178:8 *210:78 7.52158e-05
52 *183:33 *425:A 0
53 *198:59 *424:A 6.46834e-05
54 *198:59 *425:A 0.000469085
55 *199:46 *210:78 0
56 *208:29 *210:32 0
57 *208:93 *210:45 0.000175285
58 *208:93 *210:55 0
59 *208:99 *210:10 0.000260875
60 *208:99 *210:16 7.55811e-05
*RES
1 *565:X *210:10 41.6583 
2 *210:10 *210:16 21.5965 
3 *210:16 *210:18 1.8334 
4 *210:18 *210:24 22.2454 
5 *210:24 *210:32 44.7792 
6 *210:32 *498:A 40 
7 *210:24 *210:45 22.8634 
8 *210:45 *210:55 41.9493 
9 *210:55 *493:B1 20 
10 *210:45 *374:A 20 
11 *210:18 *508:B1 20.3502 
12 *210:16 *210:78 44.7998 
13 *210:78 *425:A 24.0388 
14 *210:78 *424:A 20.5356 
15 *210:10 *210:100 43.9964 
16 *210:100 *210:104 20.4275 
17 *210:104 *453:B1 24.7535 
18 *210:104 *510:A 21.0557 
*END

*D_NET *211 0.00706718
*CONN
*I *484:B2 I *D sg13g2_a22oi_1
*I *459:A I *D sg13g2_nor2_1
*I *450:A I *D sg13g2_and3_1
*I *564:A I *D sg13g2_buf_1
*I *566:X O *D sg13g2_buf_1
*CAP
1 *484:B2 0.000134574
2 *459:A 0.000650388
3 *450:A 0
4 *564:A 0.00042084
5 *566:X 0.00028281
6 *211:36 0.00134603
7 *211:25 0.000764795
8 *211:8 0.000907374
9 *459:A *459:B 0
10 *564:A *215:51 1.55212e-05
11 *444:B *459:A 0
12 *447:B *564:A 4.78853e-05
13 *484:B1 *484:B2 0
14 *65:6 *459:A 0.000176789
15 *65:6 *484:B2 0.00014436
16 *65:23 *459:A 9.67976e-05
17 *66:36 *211:36 0
18 *69:20 *211:36 0
19 *71:25 *564:A 0
20 *77:12 *459:A 8.01116e-05
21 *77:22 *459:A 0.000176789
22 *102:10 *484:B2 4.79124e-05
23 *102:10 *211:36 0
24 *107:31 *211:25 0.000337307
25 *107:31 *211:36 0.000338475
26 *107:37 *211:36 0
27 *162:24 *564:A 0
28 *162:24 *211:8 0
29 *197:108 *484:B2 0.000106151
30 *197:108 *211:36 0.000332816
31 *204:91 *211:8 0
32 *207:52 *211:8 0.000547762
33 *209:8 *564:A 0
34 *209:52 *564:A 0
35 *209:52 *211:8 0
36 *209:52 *211:25 0.000111685
*RES
1 *566:X *211:8 43.0694 
2 *211:8 *564:A 43.6462 
3 *211:8 *211:25 22.1579 
4 *211:25 *450:A 20 
5 *211:25 *211:36 25.6908 
6 *211:36 *459:A 46.2315 
7 *211:36 *484:B2 41.5656 
*END

*D_NET *212 0.00901159
*CONN
*I *393:A I *D sg13g2_or2_1
*I *421:A I *D sg13g2_xor2_1
*I *420:A I *D sg13g2_and2_1
*I *400:A I *D sg13g2_and2_1
*I *391:A I *D sg13g2_or2_1
*I *376:A I *D sg13g2_inv_1
*I *384:B1 I *D sg13g2_o21ai_1
*I *390:A I *D sg13g2_nor2_1
*I *567:X O *D sg13g2_buf_1
*CAP
1 *393:A 0
2 *421:A 0
3 *420:A 0
4 *400:A 2.81507e-05
5 *391:A 9.61153e-05
6 *376:A 0
7 *384:B1 3.48067e-05
8 *390:A 0
9 *567:X 0.000126432
10 *212:113 0.000240982
11 *212:105 0.000794163
12 *212:66 8.80946e-05
13 *212:51 0.000424752
14 *212:43 0.000917105
15 *212:33 0.000757587
16 *212:31 0.000849767
17 *212:22 0.00030831
18 *212:20 0.00101229
19 *212:6 0.000916701
20 *384:B1 *516:B 1.54008e-05
21 *384:B1 *213:35 0
22 *384:B1 *213:39 0
23 *400:A *213:29 0
24 *212:6 *217:8 0
25 *212:20 *568:A 0
26 *212:20 *213:8 0.000209669
27 *212:20 *213:18 0
28 *212:20 *214:26 0
29 *212:20 *214:70 2.16289e-05
30 *212:20 *215:12 0
31 *212:22 *213:18 0
32 *212:31 *213:29 0.000111478
33 *212:33 *213:29 4.75426e-05
34 *212:43 *213:70 0
35 *212:51 *213:35 0
36 *212:66 *384:A2 7.41682e-05
37 *212:66 *217:20 0.000177328
38 *212:105 *213:86 0
39 *416:B *212:105 0
40 *508:A1 *391:A 0
41 *508:A1 *212:51 8.03692e-05
42 *508:B1 *212:51 0
43 *509:B *212:43 0
44 *509:B *212:51 2.21754e-05
45 *543:CLK *212:105 0
46 *543:CLK *212:113 0
47 *565:A *212:43 1.54008e-05
48 *567:A *212:6 0.000209729
49 *567:A *212:20 0
50 *29:12 *212:20 0.000242125
51 *31:8 *212:20 0
52 *31:25 *212:20 0
53 *33:10 *212:43 0.000110299
54 *88:12 *212:43 0
55 *126:12 *212:51 0
56 *149:8 *212:51 0
57 *154:10 *212:22 4.62891e-05
58 *172:8 *212:105 0
59 *176:10 *212:113 0
60 *179:14 *212:113 0
61 *183:33 *212:20 0
62 *183:33 *212:22 0
63 *183:33 *212:33 0
64 *183:33 *212:43 0
65 *198:61 *212:105 0.000162099
66 *198:61 *212:113 8.02269e-05
67 *199:46 *212:113 0
68 *208:99 *212:43 0.000179542
69 *210:16 *212:43 0
70 *210:18 *212:51 0
71 *210:24 *212:51 0.000144843
72 *210:24 *212:66 0.000127878
73 *210:45 *212:66 0.000103961
74 *210:78 *212:43 0.000234177
*RES
1 *567:X *212:6 21.4008 
2 *212:6 *212:20 48.3327 
3 *212:20 *212:22 2.0497 
4 *212:22 *390:A 20 
5 *212:22 *212:31 1.1021 
6 *212:31 *212:33 2.0497 
7 *212:33 *212:43 45.562 
8 *212:43 *212:51 3.3475 
9 *212:51 *384:B1 20.3193 
10 *212:51 *212:66 41.4111 
11 *212:66 *376:A 20 
12 *212:43 *391:A 21.339 
13 *212:33 *400:A 20.3502 
14 *212:31 *212:105 45.4899 
15 *212:105 *212:113 42.6162 
16 *212:113 *420:A 20 
17 *212:105 *421:A 20 
18 *212:6 *393:A 20 
*END

*D_NET *213 0.00798885
*CONN
*I *382:A I *D sg13g2_nor2_1
*I *416:A I *D sg13g2_nand2_1
*I *400:B I *D sg13g2_and2_1
*I *391:B I *D sg13g2_or2_1
*I *384:A1 I *D sg13g2_o21ai_1
*I *516:A I *D sg13g2_nand3_1
*I *452:B I *D sg13g2_nand2_1
*I *390:B I *D sg13g2_nor2_1
*I *568:X O *D sg13g2_buf_1
*CAP
1 *382:A 0
2 *416:A 0
3 *400:B 0
4 *391:B 0
5 *384:A1 0
6 *516:A 0
7 *452:B 0
8 *390:B 0
9 *568:X 0.000169322
10 *213:86 0.000162353
11 *213:70 0.000251164
12 *213:49 0.000594608
13 *213:39 0.000861289
14 *213:35 0.000455807
15 *213:33 0.000846985
16 *213:29 0.000686774
17 *213:18 0.000945202
18 *213:8 0.000672091
19 *213:8 *214:26 0
20 *213:18 *214:26 8.03146e-05
21 *213:18 *215:36 0
22 *213:39 *516:B 0
23 *213:39 *219:71 0
24 *213:49 *516:B 1.54556e-05
25 *384:B1 *213:35 0
26 *384:B1 *213:39 0
27 *400:A *213:29 0
28 *460:A *213:18 0
29 *460:B *213:29 0
30 *505:A2 *213:49 8.00842e-05
31 *513:A2 *213:29 0
32 *516:C *213:49 0
33 *31:45 *213:18 0
34 *33:10 *213:33 0.000306781
35 *35:12 *213:49 0.000548136
36 *35:27 *213:49 0
37 *41:60 *213:18 0.00018211
38 *71:42 *213:49 8.00842e-05
39 *126:12 *213:29 0
40 *126:12 *213:33 0
41 *134:8 *213:49 0.000231058
42 *139:10 *213:49 0
43 *144:33 *213:49 0
44 *147:10 *213:18 0
45 *149:12 *213:70 0
46 *154:10 *213:18 4.72913e-05
47 *154:10 *213:86 0
48 *182:12 *213:18 1.10483e-06
49 *182:16 *213:18 0.000127471
50 *183:33 *213:33 0
51 *183:33 *213:35 0
52 *210:16 *213:33 0
53 *210:18 *213:33 0
54 *210:18 *213:35 6.4771e-05
55 *210:24 *213:35 0.000209899
56 *210:24 *213:70 0
57 *212:20 *213:8 0.000209669
58 *212:20 *213:18 0
59 *212:22 *213:18 0
60 *212:31 *213:29 0.000111478
61 *212:33 *213:29 4.75426e-05
62 *212:43 *213:70 0
63 *212:51 *213:35 0
64 *212:105 *213:86 0
*RES
1 *568:X *213:8 21.751 
2 *213:8 *213:18 44.944 
3 *213:18 *390:B 20 
4 *213:18 *213:29 2.7192 
5 *213:29 *213:33 3.914 
6 *213:33 *213:35 2.266 
7 *213:35 *213:39 2.8634 
8 *213:39 *213:49 46.1182 
9 *213:49 *452:B 20 
10 *213:39 *516:A 20 
11 *213:35 *384:A1 20 
12 *213:33 *213:70 42.0806 
13 *213:70 *391:B 20 
14 *213:29 *400:B 20 
15 *213:18 *213:86 41.339 
16 *213:86 *416:A 20 
17 *213:8 *382:A 20 
*END

*D_NET *214 0.0162482
*CONN
*I *438:A_N I *D sg13g2_nand3b_1
*I *448:A I *D sg13g2_xor2_1
*I *465:B I *D sg13g2_nand3_1
*I *459:B I *D sg13g2_nor2_1
*I *461:B I *D sg13g2_xnor2_1
*I *568:A I *D sg13g2_buf_1
*I *453:A1 I *D sg13g2_a21oi_1
*I *417:A I *D sg13g2_xnor2_1
*I *569:X O *D sg13g2_buf_1
*CAP
1 *438:A_N 0.000399064
2 *448:A 4.87924e-05
3 *465:B 0
4 *459:B 3.6697e-05
5 *461:B 0.000153493
6 *568:A 3.29033e-05
7 *453:A1 0.000179402
8 *417:A 0.0008608
9 *569:X 7.55264e-05
10 *214:106 0.000977232
11 *214:97 0.000215403
12 *214:89 0.00225569
13 *214:70 0.00214283
14 *214:26 0.00131776
15 *214:20 0.000384174
16 *214:16 0.000499187
17 *214:12 0.00107809
18 *214:8 0.000286412
19 *417:A *418:A 0.000242355
20 *417:A *215:69 0
21 *438:A_N *378:A 0.000272528
22 *438:A_N *216:10 0.000143224
23 *438:A_N *218:59 0
24 *448:A *216:10 8.00842e-05
25 *448:A *218:49 0
26 *453:A1 *453:A2 0
27 *453:A1 *215:69 0
28 *568:A *215:12 0
29 *214:20 *215:69 0
30 *214:26 *453:A2 0
31 *214:26 *215:12 0
32 *214:26 *215:16 3.1599e-05
33 *214:70 *215:8 0.000859887
34 *214:106 *218:70 0
35 *414:A *438:A_N 4.77425e-05
36 *417:B *417:A 1.54008e-05
37 *418:B *417:A 0
38 *438:C *438:A_N 1.53556e-05
39 *449:A *214:97 0
40 *453:B1 *453:A1 7.79576e-05
41 *459:A *459:B 0
42 *543:CLK *417:A 0
43 *29:12 *214:8 0.000231558
44 *31:8 *214:20 0
45 *31:45 *453:A1 7.30101e-05
46 *67:10 *214:106 0.00112926
47 *72:22 *214:70 0.000180574
48 *75:14 *214:89 0.0015788
49 *78:10 *214:89 0
50 *86:16 *214:89 0
51 *86:16 *214:97 0
52 *139:10 *214:97 1.54008e-05
53 *142:31 *214:70 0
54 *142:31 *214:89 0
55 *144:52 *214:106 0
56 *157:42 *214:70 0
57 *157:42 *214:89 0
58 *170:42 *214:106 0
59 *177:16 *417:A 0
60 *180:19 *214:89 0
61 *182:12 *417:A 0
62 *182:16 *417:A 0
63 *182:31 *417:A 0
64 *183:33 *417:A 0
65 *197:31 *438:A_N 0
66 *197:31 *214:106 0
67 *208:61 *214:97 0
68 *209:85 *438:A_N 0.000208049
69 *212:20 *568:A 0
70 *212:20 *214:26 0
71 *212:20 *214:70 2.16289e-05
72 *213:8 *214:26 0
73 *213:18 *214:26 8.03146e-05
*RES
1 *569:X *214:8 41.0918 
2 *214:8 *214:12 21.6171 
3 *214:12 *214:16 22.0497 
4 *214:16 *214:20 20.5974 
5 *214:20 *214:26 22.5853 
6 *214:26 *417:A 48.6417 
7 *214:26 *453:A1 41.9467 
8 *214:20 *568:A 20.3193 
9 *214:16 *461:B 41.0918 
10 *214:12 *214:70 27.0246 
11 *214:70 *459:B 40.3193 
12 *214:70 *214:89 36.9435 
13 *214:89 *214:97 41.9364 
14 *214:97 *465:B 20 
15 *214:89 *214:106 26.5302 
16 *214:106 *448:A 40.5356 
17 *214:106 *438:A_N 44.1612 
*END

*D_NET *215 0.00901147
*CONN
*I *393:B I *D sg13g2_or2_1
*I *453:A2 I *D sg13g2_a21oi_1
*I *382:B I *D sg13g2_nor2_1
*I *377:A I *D sg13g2_inv_1
*I *418:A I *D sg13g2_xnor2_1
*I *399:B I *D sg13g2_nand2_1
*I *447:A I *D sg13g2_nand2_1
*I *469:A1 I *D sg13g2_a21oi_1
*I *570:X O *D sg13g2_buf_1
*CAP
1 *393:B 0
2 *453:A2 4.65796e-05
3 *382:B 0
4 *377:A 0
5 *418:A 0.000306871
6 *399:B 0
7 *447:A 0
8 *469:A1 3.34444e-05
9 *570:X 0.000259231
10 *215:69 0.000793353
11 *215:51 0.000221092
12 *215:36 0.000826053
13 *215:26 0.000571517
14 *215:24 0.000204641
15 *215:18 0.000691123
16 *215:16 4.49906e-05
17 *215:12 0.000461833
18 *215:10 0.000370263
19 *215:8 0.000259231
20 *215:8 *217:53 0.000284685
21 *417:A *418:A 0.000242355
22 *417:A *215:69 0
23 *418:B *418:A 0
24 *453:A1 *453:A2 0
25 *453:A1 *215:69 0
26 *453:B1 *453:A2 0
27 *453:B1 *215:36 0.000112455
28 *460:A *215:36 0
29 *475:A_N *215:51 0
30 *478:A2 *215:8 0
31 *512:B1 *453:A2 0
32 *512:B1 *215:12 0
33 *514:A2 *215:36 8.00842e-05
34 *541:D *418:A 0
35 *541:D *215:69 0
36 *564:A *215:51 1.55212e-05
37 *567:A *215:12 4.77702e-05
38 *568:A *215:12 0
39 *31:25 *215:8 0.000177127
40 *31:27 *215:12 0
41 *31:37 *215:24 0.00014555
42 *31:45 *215:36 0
43 *41:24 *418:A 0
44 *41:49 *215:69 0.00012816
45 *72:16 *215:12 0
46 *79:20 *469:A1 4.77425e-05
47 *79:20 *215:36 9.67976e-05
48 *80:8 *215:8 0
49 *126:18 *215:51 0.000230615
50 *130:10 *215:51 0.000333844
51 *142:31 *215:8 0
52 *147:22 *215:36 0
53 *147:55 *215:8 0.000124547
54 *154:21 *215:36 0.000333544
55 *162:14 *215:36 0
56 *162:24 *215:51 0.000249508
57 *182:31 *418:A 0
58 *183:33 *215:69 0.000347885
59 *208:106 *215:36 0
60 *210:104 *215:36 3.15716e-05
61 *212:20 *215:12 0
62 *213:18 *215:36 0
63 *214:20 *215:69 0
64 *214:26 *453:A2 0
65 *214:26 *215:12 0
66 *214:26 *215:16 3.1599e-05
67 *214:70 *215:8 0.000859887
*RES
1 *570:X *215:8 44.0582 
2 *215:8 *215:10 20 
3 *215:10 *215:12 3.45565 
4 *215:12 *215:16 0.56135 
5 *215:16 *215:18 20 
6 *215:18 *215:24 42.266 
7 *215:24 *215:26 20 
8 *215:26 *215:36 45.4693 
9 *215:36 *469:A1 20.3193 
10 *215:36 *215:51 43.1415 
11 *215:51 *447:A 20 
12 *215:26 *399:B 20 
13 *215:18 *215:69 25.5054 
14 *215:69 *418:A 23.744 
15 *215:69 *377:A 20 
16 *215:16 *382:B 20 
17 *215:12 *453:A2 20.6129 
18 *215:10 *393:B 20 
*END

*D_NET *216 0.00433848
*CONN
*I *590:A I *D sg13g2_buf_1
*I *483:Y O *D sg13g2_a22oi_1
*CAP
1 *590:A 0.000500993
2 *483:Y 0.000734852
3 *216:10 0.00123584
4 *590:A *220:10 0
5 *216:10 *218:49 0
6 sine_out[15] *590:A 0
7 sine_out[4] *590:A 0.000455155
8 *385:B *216:10 0
9 *438:A_N *216:10 0.000143224
10 *448:A *216:10 8.00842e-05
11 *474:A *216:10 0
12 *483:B1 *216:10 4.79124e-05
13 *483:B2 *216:10 4.79124e-05
14 *576:A *590:A 0
15 *584:A *590:A 4.75151e-05
16 *586:A *590:A 1.54008e-05
17 *29:63 *216:10 0.000241282
18 *171:8 *216:10 0.000447597
19 *192:8 *216:10 0.000340704
20 *201:94 *590:A 0
21 *202:56 *590:A 0
22 *202:56 *216:10 0
23 *206:80 *216:10 0
*RES
1 *483:Y *216:10 48.6108 
2 *216:10 *590:A 45.0985 
*END

*D_NET *217 0.00770805
*CONN
*I *570:A I *D sg13g2_buf_1
*I *478:A1 I *D sg13g2_o21ai_1
*I *516:B I *D sg13g2_nand3_1
*I *384:A2 I *D sg13g2_o21ai_1
*I *571:X O *D sg13g2_buf_1
*CAP
1 *570:A 0
2 *478:A1 0
3 *516:B 0.000252736
4 *384:A2 5.7998e-05
5 *571:X 0.000236919
6 *217:53 0.00017209
7 *217:20 0.00193816
8 *217:14 0.00162743
9 *217:10 0.000156253
10 *217:8 0.000565262
11 *383:A *516:B 0
12 *384:B1 *516:B 1.54008e-05
13 *454:A *217:53 8.00842e-05
14 *454:B *217:10 0.000144842
15 *455:B1 *217:10 0
16 *455:B1 *217:53 4.77425e-05
17 *478:A2 *217:10 4.77699e-05
18 *478:A2 *217:53 0
19 *512:B1 *217:8 0.000112426
20 *512:B1 *217:10 0
21 *512:A2 *217:10 4.77699e-05
22 *516:C *516:B 0
23 *517:B *516:B 0
24 *131:10 *217:20 0.00112943
25 *142:14 *217:20 0
26 *142:31 *217:53 0
27 *144:12 *516:B 0
28 *144:33 *217:20 0
29 *147:16 *217:20 0
30 *147:55 *217:20 0
31 *157:14 *217:20 0.000375962
32 *208:93 *516:B 0
33 *208:93 *217:20 0.000126466
34 *210:55 *217:20 2.16749e-05
35 *212:6 *217:8 0
36 *212:66 *384:A2 7.41682e-05
37 *212:66 *217:20 0.000177328
38 *213:39 *516:B 0
39 *213:49 *516:B 1.54556e-05
40 *215:8 *217:53 0.000284685
*RES
1 *571:X *217:8 22.3999 
2 *217:8 *217:10 1.6171 
3 *217:10 *217:14 40 
4 *217:14 *217:20 36.0886 
5 *217:20 *384:A2 40.5974 
6 *217:20 *516:B 42.6162 
7 *217:10 *478:A1 20 
8 *217:8 *217:53 41.8746 
9 *217:53 *570:A 20 
*END

*D_NET *218 0.0134519
*CONN
*I *487:C I *D sg13g2_nand3_1
*I *441:A I *D sg13g2_nor3_1
*I *448:B I *D sg13g2_xor2_1
*I *465:C I *D sg13g2_nand3_1
*I *438:B I *D sg13g2_nand3b_1
*I *571:A I *D sg13g2_buf_1
*I *572:X O *D sg13g2_buf_1
*CAP
1 *487:C 0
2 *441:A 0
3 *448:B 0
4 *465:C 0
5 *438:B 0
6 *571:A 0
7 *572:X 0.000413492
8 *218:70 0.000393061
9 *218:59 0.000483884
10 *218:49 0.00111518
11 *218:47 0.00105373
12 *218:41 0.00104051
13 *218:39 0.00106445
14 *218:23 0.00193843
15 *218:10 0.00151249
16 *387:B *218:39 0.000305703
17 *402:A *218:39 0
18 *438:C *218:59 1.53556e-05
19 *438:A_N *218:59 0
20 *439:C *218:59 0
21 *448:A *218:49 0
22 *473:B *218:47 0.000312199
23 *473:C *218:47 7.93965e-05
24 *486:A *218:39 0.000288502
25 *579:A *218:49 0
26 *579:A *218:59 0
27 *588:A *218:39 0.000121741
28 *29:12 *218:10 0
29 *29:27 *218:10 0
30 *29:27 *218:23 0
31 *29:37 *218:39 0
32 *29:49 *218:39 0
33 *29:63 *218:47 0
34 *67:10 *218:47 6.48861e-05
35 *67:10 *218:49 4.77702e-05
36 *76:33 *218:70 0
37 *92:10 *218:47 4.78769e-05
38 *144:52 *218:70 0.00113379
39 *151:12 *218:39 0
40 *151:12 *218:41 0.000386544
41 *151:12 *218:47 1.54556e-05
42 *151:36 *218:39 0.000103185
43 *151:47 *218:39 5.30319e-05
44 *163:53 *218:39 0.000176018
45 *164:12 *218:39 0
46 *166:21 *218:47 0
47 *167:31 *218:41 0.000337544
48 *167:31 *218:47 0.000305727
49 *171:22 *218:59 0
50 *197:31 *218:49 0.000144771
51 *197:31 *218:59 0.000208035
52 *197:31 *218:70 0
53 *206:80 *218:47 0.000273809
54 *206:80 *218:49 1.53835e-05
55 *214:106 *218:70 0
56 *216:10 *218:49 0
*RES
1 *572:X *218:10 43.3887 
2 *218:10 *571:A 40 
3 *218:10 *218:23 30.8047 
4 *218:23 *218:39 49.0228 
5 *218:39 *218:41 2.6986 
6 *218:41 *218:47 8.343 
7 *218:47 *218:49 2.266 
8 *218:49 *218:59 44.017 
9 *218:59 *438:B 20 
10 *218:49 *218:70 45.2942 
11 *218:70 *465:C 20 
12 *218:47 *448:B 20 
13 *218:41 *441:A 20 
14 *218:23 *487:C 20 
*END

*D_NET *219 0.0141997
*CONN
*I *537:A I *D sg13g2_inv_1
*I *535:A I *D sg13g2_inv_1
*I *534:A I *D sg13g2_inv_1
*I *379:A I *D sg13g2_inv_1
*I *532:A I *D sg13g2_inv_1
*I *539:A I *D sg13g2_inv_1
*I *538:A I *D sg13g2_inv_1
*I *536:A I *D sg13g2_inv_1
*I *573:X O *D sg13g2_buf_1
*CAP
1 *537:A 0
2 *535:A 0
3 *534:A 0
4 *379:A 0
5 *532:A 0
6 *539:A 0
7 *538:A 0
8 *536:A 0
9 *573:X 0
10 *219:93 5.54831e-05
11 *219:87 0.00140663
12 *219:75 0.00164394
13 *219:71 0.001065
14 *219:59 0.00100046
15 *219:41 0.000376423
16 *219:31 0.000520387
17 *219:29 0.00111711
18 *219:18 0.000732127
19 *219:6 0.00195671
20 *219:4 0.000479693
21 *420:B *219:87 0
22 *421:B *219:87 0
23 *423:B1 *219:87 0.000242355
24 *433:A2 *219:75 0
25 *436:A *219:6 0
26 *436:A *219:18 0
27 *437:A *219:6 0
28 *443:A *219:41 0
29 *542:D *219:87 0.000793382
30 *543:D *219:87 0.000371695
31 *544:D *219:87 0
32 *544:CLK *219:71 0
33 *545:CLK *219:18 0
34 *546:RESET_B *219:6 0.000208035
35 *546:RESET_B *219:59 1.54008e-05
36 *546:D *219:6 0
37 *546:D *219:18 0
38 *560:A *219:71 4.79124e-05
39 *3:12 *219:41 0
40 *35:12 *219:71 0
41 *45:10 *219:87 0
42 *48:8 *219:59 0
43 *53:10 *219:87 0
44 *62:10 *219:31 0
45 *62:10 *219:41 0
46 *122:18 *219:29 0
47 *176:10 *219:87 0
48 *179:6 *219:87 0
49 *179:14 *219:87 0
50 *181:10 *219:29 0
51 *181:12 *219:18 0
52 *181:12 *219:29 0
53 *183:27 *219:59 0
54 *183:27 *219:71 0
55 *183:33 *219:71 0.000820584
56 *188:12 *219:29 0
57 *188:12 *219:41 0.000928567
58 *198:59 *219:87 0
59 *201:25 *219:18 2.22695e-05
60 *201:25 *219:29 0
61 *204:16 *219:18 0.000395568
62 *213:39 *219:71 0
*RES
1 *573:X *219:4 20 
2 *219:4 *219:6 2.266 
3 *219:6 *219:18 48.3842 
4 *219:18 *536:A 20 
5 *219:6 *219:29 49.991 
6 *219:29 *219:31 1.4008 
7 *219:31 *219:41 45.2886 
8 *219:41 *538:A 20 
9 *219:31 *539:A 20 
10 *219:4 *219:59 41.8746 
11 *219:59 *219:71 28.7962 
12 *219:71 *219:75 23.0694 
13 *219:75 *219:87 15.2646 
14 *219:87 *219:93 40.5974 
15 *219:93 *532:A 20 
16 *219:87 *379:A 20 
17 *219:75 *534:A 20 
18 *219:71 *535:A 40 
19 *219:59 *537:A 20 
*END

*D_NET *220 0.00332864
*CONN
*I *378:A I *D sg13g2_inv_1
*I *574:X O *D sg13g2_dlygate4sd3_1
*CAP
1 *378:A 0.000320351
2 *574:X 0.000494232
3 *220:10 0.000814583
4 *438:A_N *378:A 0.000272528
5 *440:B *378:A 0
6 *586:A *220:10 0
7 *589:A *220:10 4.77702e-05
8 *590:A *220:10 0
9 *6:6 *220:10 0.000177442
10 *27:10 *220:10 0
11 *201:77 *220:10 0.000768695
12 *205:10 *378:A 0.00043304
*RES
1 *574:X *220:10 45.5482 
2 *220:10 *378:A 43.3475 
*END

*D_NET *221 0.00134878
*CONN
*I *591:A I *D sg13g2_buf_1
*I *395:Y O *D sg13g2_a21oi_1
*CAP
1 *591:A 0.000178118
2 *395:Y 0.000152817
3 *221:8 0.000330935
4 *386:A2 *591:A 0
5 *386:B1 *591:A 0
6 *531:B1 *221:8 0
7 *193:10 *221:8 0
8 *200:66 *591:A 0.000242213
9 *202:124 *221:8 0.000444701
*RES
1 *395:Y *221:8 42.0806 
2 *221:8 *591:A 41.9673 
*END

*D_NET *222 0.00138525
*CONN
*I *592:A I *D sg13g2_buf_1
*I *398:Y O *D sg13g2_o21ai_1
*CAP
1 *592:A 6.98543e-05
2 *398:Y 0.00043857
3 *222:10 0.000508425
4 *222:10 *223:16 0
5 *389:B *222:10 0
6 *585:A *592:A 0
7 *587:A *222:10 0
8 *588:A *592:A 0
9 *152:10 *592:A 8.02267e-05
10 *152:10 *222:10 0
11 *153:8 *222:10 0
12 *153:38 *222:10 0
13 *165:37 *222:10 0
14 *200:100 *222:10 0.000288173
15 *209:123 *222:10 0
*RES
1 *398:Y *222:10 44.444 
2 *222:10 *592:A 40.5671 
*END

*D_NET *223 0.00178838
*CONN
*I *593:A I *D sg13g2_buf_1
*I *403:Y O *D sg13g2_o21ai_1
*CAP
1 *593:A 0
2 *403:Y 7.9055e-05
3 *223:16 0.000435268
4 *223:8 0.000514323
5 *403:B1 *223:8 8.00424e-05
6 *403:A1 *223:8 0
7 *153:38 *223:16 0.00018128
8 *159:52 *223:16 0
9 *196:8 *223:16 0
10 *200:72 *223:16 0.000498411
11 *202:124 *223:16 0
12 *209:123 *223:16 0
13 *222:10 *223:16 0
*RES
1 *403:Y *223:8 40.7519 
2 *223:8 *223:16 45.5208 
3 *223:16 *593:A 40 
*END

*D_NET *224 0.000226587
*CONN
*I *594:A I *D sg13g2_buf_1
*I *406:Y O *D sg13g2_a21oi_1
*CAP
1 *594:A 0.000113293
2 *406:Y 0.000113293
3 *585:A *594:A 0
4 *587:A *594:A 0
*RES
1 *406:Y *594:A 41.4111 
*END

*D_NET *225 0.000766284
*CONN
*I *595:A I *D sg13g2_buf_1
*I *407:Y O *D sg13g2_o21ai_1
*CAP
1 *595:A 5.87345e-05
2 *407:Y 0.00011673
3 *225:8 0.000175465
4 *407:B1 *225:8 0.00018091
5 *141:8 *225:8 0.000127878
6 *150:23 *595:A 0
7 *150:31 *225:8 0
8 *191:10 *225:8 0
9 *200:66 *595:A 0
10 *200:66 *225:8 0.000106566
*RES
1 *407:Y *225:8 41.8334 
2 *225:8 *595:A 40.5356 
*END
