*SPEF "ieee 1481-1999"
*DESIGN "DigitalSine"
*DATE "22:14:35 Friday September 18, 2026"
*VENDOR "The OpenROAD Project"
*PROGRAM "OpenROAD"
*VERSION "26Q1-1024-gdcf36133a"
*DESIGN_FLOW "NAME_SCOPE LOCAL" "PIN_CAP NONE"
*DIVIDER /
*DELIMITER :
*BUS_DELIMITER []
*T_UNIT 1 NS
*C_UNIT 1 PF
*R_UNIT 1 OHM
*L_UNIT 1 HENRY

*NAME_MAP
*1 DATA[0]
*2 DATA[10]
*3 DATA[11]
*4 DATA[12]
*5 DATA[13]
*6 DATA[14]
*7 DATA[15]
*8 DATA[16]
*9 DATA[17]
*10 DATA[1]
*11 DATA[2]
*12 DATA[3]
*13 DATA[4]
*14 DATA[5]
*15 DATA[6]
*16 DATA[7]
*17 DATA[8]
*18 DATA[9]
*21 clk
*22 o_sign
*23 o_signB
*24 rst
*25 CTRL\.P0
*26 CTRL\.P1
*27 CTRL\.S0
*28 DPATH\.SUM\.Cout0
*29 DPATH\.SUM\.fa_1\.A
*30 DPATH\.SUM\.fa_1\.S
*31 DPATH\.SUM\.fa_2\.A
*32 DPATH\.SUM\.fa_2\.S
*33 DPATH\.SUM\.fa_3\.A
*34 DPATH\.SUM\.fa_3\.S
*35 DPATH\.SUM\.fa_4\.A
*36 DPATH\.SUM\.fa_4\.S
*37 DPATH\.SUM\.fa_5\.A
*38 DPATH\.SUM\.fa_5\.S
*39 DPATH\.SUM\.fa_6\.A
*40 DPATH\.SUM\.fa_6\.S
*41 DPATH\.SUM\.ha_0\.S
*42 _000_
*43 _001_
*44 _002_
*45 _003_
*46 _004_
*47 _005_
*48 _006_
*49 _007_
*50 _008_
*51 _009_
*52 _010_
*53 _011_
*54 _012_
*55 _013_
*56 _014_
*57 _015_
*58 _016_
*59 _017_
*60 _018_
*61 _019_
*62 _020_
*63 _021_
*64 _022_
*65 _023_
*66 _024_
*67 _025_
*68 _026_
*69 _027_
*70 _028_
*71 _029_
*72 _030_
*73 _031_
*74 _032_
*75 _033_
*76 _034_
*77 _035_
*78 _036_
*79 _037_
*80 _038_
*81 _039_
*82 _040_
*83 _041_
*84 _042_
*85 _043_
*86 _044_
*87 _045_
*88 _046_
*89 _047_
*90 _048_
*91 _049_
*92 _050_
*93 _051_
*94 _052_
*95 _053_
*96 _054_
*97 _055_
*98 _056_
*99 _057_
*100 _058_
*101 _059_
*102 _060_
*103 _061_
*104 _062_
*105 _063_
*106 _064_
*107 _065_
*108 _066_
*109 _067_
*110 _068_
*111 _069_
*112 _070_
*113 _071_
*114 _072_
*115 _073_
*116 _074_
*117 _075_
*118 _076_
*119 _077_
*120 _078_
*121 _079_
*122 _080_
*123 _081_
*124 _082_
*125 _083_
*126 _084_
*127 _085_
*128 _086_
*129 _087_
*130 _088_
*131 _089_
*132 _090_
*133 _091_
*134 _092_
*135 _093_
*136 _094_
*137 _095_
*138 _096_
*139 _097_
*140 _098_
*141 _099_
*142 _100_
*143 _101_
*144 _102_
*145 _103_
*146 _104_
*147 _105_
*148 _106_
*149 _107_
*150 _108_
*151 _109_
*152 _110_
*153 _111_
*154 _112_
*155 _113_
*156 _114_
*157 _115_
*158 _116_
*159 _117_
*160 _118_
*161 _119_
*162 _120_
*163 _121_
*164 _122_
*165 _123_
*166 _124_
*167 _125_
*168 _126_
*169 _127_
*170 _128_
*171 _129_
*172 clknet_0_clk
*173 clknet_1_0__leaf_clk
*174 clknet_1_1__leaf_clk
*175 net1
*176 net10
*177 net11
*178 net12
*179 net13
*180 net14
*181 net15
*182 net16
*183 net17
*184 net18
*185 net19
*186 net2
*187 net20
*188 net21
*189 net22
*190 net23
*191 net24
*192 net25
*193 net26
*194 net27
*195 net28
*196 net29
*197 net3
*198 net30
*199 net31
*200 net32
*201 net33
*202 net34
*203 net35
*204 net36
*205 net37
*206 net38
*207 net39
*208 net4
*209 net40
*210 net41
*211 net42
*212 net43
*213 net5
*214 net6
*215 net7
*216 net8
*217 net9
*218 FILLER_0_0
*219 FILLER_0_74
*220 FILLER_10_0
*221 FILLER_10_102
*222 FILLER_10_27
*223 FILLER_10_34
*224 FILLER_10_45
*225 FILLER_10_49
*226 FILLER_10_63
*227 FILLER_10_67
*228 FILLER_10_74
*229 FILLER_10_76
*230 FILLER_10_81
*231 FILLER_10_83
*232 FILLER_10_95
*233 FILLER_11_0
*234 FILLER_11_14
*235 FILLER_11_19
*236 FILLER_11_21
*237 FILLER_11_27
*238 FILLER_11_31
*239 FILLER_11_36
*240 FILLER_11_42
*241 FILLER_11_44
*242 FILLER_11_63
*243 FILLER_11_7
*244 FILLER_11_70
*245 FILLER_11_76
*246 FILLER_11_95
*247 FILLER_12_0
*248 FILLER_12_114
*249 FILLER_12_29
*250 FILLER_12_40
*251 FILLER_12_42
*252 FILLER_12_7
*253 FILLER_12_75
*254 FILLER_12_77
*255 FILLER_12_82
*256 FILLER_12_86
*257 FILLER_13_0
*258 FILLER_13_14
*259 FILLER_13_23
*260 FILLER_13_30
*261 FILLER_13_37
*262 FILLER_13_44
*263 FILLER_13_55
*264 FILLER_13_62
*265 FILLER_13_69
*266 FILLER_13_7
*267 FILLER_13_73
*268 FILLER_13_78
*269 FILLER_13_85
*270 FILLER_13_89
*271 FILLER_1_0
*272 FILLER_1_104
*273 FILLER_1_18
*274 FILLER_1_68
*275 FILLER_2_0
*276 FILLER_2_114
*277 FILLER_2_23
*278 FILLER_2_85
*279 FILLER_3_0
*280 FILLER_3_101
*281 FILLER_3_14
*282 FILLER_3_55
*283 FILLER_3_95
*284 FILLER_4_0
*285 FILLER_4_86
*286 FILLER_5_0
*287 FILLER_5_18
*288 FILLER_5_22
*289 FILLER_5_26
*290 FILLER_5_69
*291 FILLER_5_81
*292 FILLER_6_0
*293 FILLER_6_21
*294 FILLER_6_30
*295 FILLER_6_34
*296 FILLER_6_49
*297 FILLER_6_65
*298 FILLER_6_7
*299 FILLER_6_77
*300 FILLER_6_90
*301 FILLER_7_0
*302 FILLER_7_21
*303 FILLER_7_28
*304 FILLER_7_4
*305 FILLER_7_41
*306 FILLER_7_52
*307 FILLER_7_59
*308 FILLER_7_61
*309 FILLER_7_70
*310 FILLER_7_89
*311 FILLER_7_96
*312 FILLER_8_0
*313 FILLER_8_100
*314 FILLER_8_18
*315 FILLER_8_29
*316 FILLER_8_50
*317 FILLER_8_65
*318 FILLER_8_7
*319 FILLER_8_81
*320 FILLER_9_0
*321 FILLER_9_101
*322 FILLER_9_19
*323 FILLER_9_23
*324 FILLER_9_35
*325 FILLER_9_46
*326 FILLER_9_62
*327 FILLER_9_73
*328 FILLER_9_77
*329 FILLER_9_85
*330 _130_
*331 _131_
*332 _132_
*333 _133_
*334 _134_
*335 _135_
*336 _136_
*337 _137_
*338 _138_
*339 _139_
*340 _140_
*341 _141_
*342 _142_
*343 _143_
*344 _144_
*345 _145_
*346 _146_
*347 _147_
*348 _148_
*349 _149_
*350 _150_
*351 _151_
*352 _152_
*353 _153_
*354 _154_
*355 _155_
*356 _156_
*357 _157_
*358 _158_
*359 _159_
*360 _160_
*361 _161_
*362 _162_
*363 _163_
*364 _164_
*365 _165_
*366 _166_
*367 _167_
*368 _168_
*369 _169_
*370 _170_
*371 _171_
*372 _172_
*373 _173_
*374 _174_
*375 _175_
*376 _176_
*377 _177_
*378 _178_
*379 _179_
*380 _180_
*381 _181_
*382 _182_
*383 _183_
*384 _184_
*385 _185_
*386 _186_
*387 _187_
*388 _188_
*389 _189_
*390 _190_
*391 _191_
*392 _192_
*393 _193_
*394 _194_
*395 _195_
*396 _196_
*397 _197_
*398 _198_
*399 _199_
*400 _200_
*401 _201_
*402 _202_
*403 _203_
*404 _204_
*405 _205_
*406 _206_
*407 _207_
*408 _208_
*409 _209_
*410 _210_
*411 _211_
*412 _212_
*413 _213_
*414 _214_
*415 _215_
*416 _216_
*417 _217_
*418 _218_
*419 _219_
*420 _220_
*421 _221_
*422 _222_
*423 _223_
*424 _224_
*425 _225_
*426 _226_
*427 _227_
*428 _228_
*429 _229_
*430 _230_
*431 _231_
*432 _232_
*433 _233_
*434 _234_
*435 _235_
*436 _236_
*437 _237_
*438 _238_
*439 _239_
*440 _240_
*441 _241_
*442 _242_
*443 _243_
*444 _244_
*445 _245_
*446 _246_
*447 _247_
*448 _248_
*449 _249_
*450 _250_
*451 _251_
*452 _252_
*453 _253_
*454 _254_
*455 _255_
*456 _256_
*457 _257_
*458 _258_
*459 _259_
*460 _260_
*461 _261_
*462 _262_
*463 _263_
*464 _264_
*465 _265_
*466 _266_
*467 _267_
*468 _268_
*469 _269_
*470 _270_
*471 _271_
*472 _272_
*473 _273_
*474 _274_
*475 _275_
*476 _276_
*477 _277_
*478 _278_
*479 _279_
*480 _280_
*481 _281_
*482 _282_
*483 _283_
*484 _284_
*485 _285_
*486 _286_
*487 _287_
*488 _288_
*489 _289_
*490 _290_
*491 _291_
*492 _292_
*493 _293_
*494 _294_
*495 _295_
*496 _296_
*497 clkbuf_0_clk
*498 clkbuf_1_0__f_clk
*499 clkbuf_1_1__f_clk
*500 clkload0
*501 fanout22
*502 fanout23
*503 fanout24
*504 fanout25
*505 fanout26
*506 fanout27
*507 fanout28
*508 fanout29
*509 fanout30
*510 fanout31
*511 fanout32
*512 fanout33
*513 fanout34
*514 fanout35
*515 fanout36
*516 fanout37
*517 fanout38
*518 fanout39
*519 fanout40
*520 fanout41
*521 fanout42
*522 hold43
*523 input1
*524 output10
*525 output11
*526 output12
*527 output13
*528 output14
*529 output15
*530 output16
*531 output17
*532 output18
*533 output19
*534 output2
*535 output20
*536 output21
*537 output3
*538 output4
*539 output5
*540 output6
*541 output7
*542 output8
*543 output9

*PORTS
DATA[0] O
DATA[10] O
DATA[11] O
DATA[12] O
DATA[13] O
DATA[14] O
DATA[15] O
DATA[16] O
DATA[17] O
DATA[1] O
DATA[2] O
DATA[3] O
DATA[4] O
DATA[5] O
DATA[6] O
DATA[7] O
DATA[8] O
DATA[9] O
clk I
o_sign O
o_signB O
rst I

*D_NET *1 0.00225722
*CONN
*P DATA[0] O
*I *534:X O *D sg13g2_buf_1
*CAP
1 DATA[0] 0.000908741
2 *534:X 0.000219869
3 *1:8 0.00112861
4 DATA[0] DATA[2] 0
5 DATA[0] o_sign 0
6 DATA[0] *21:12 0
7 *1:8 *21:12 0
*RES
1 *534:X *1:8 42.4823 
2 *1:8 DATA[0] 11.0674 
*END

*D_NET *2 0.000685302
*CONN
*P DATA[10] O
*I *537:X O *D sg13g2_buf_1
*CAP
1 DATA[10] 0.00027832
2 *537:X 0.00027832
3 DATA[10] DATA[12] 0
4 DATA[10] DATA[14] 0
5 DATA[10] *182:8 0.000128662
*RES
1 *537:X DATA[10] 43.4041 
*END

*D_NET *3 0.00301403
*CONN
*P DATA[11] O
*I *538:X O *D sg13g2_buf_1
*CAP
1 DATA[11] 0.000343115
2 *538:X 0.000946852
3 *3:10 0.00128997
4 DATA[11] DATA[7] 0
5 DATA[11] DATA[9] 0
6 *3:10 DATA[13] 0
7 *3:10 *532:A 0
8 *3:10 *537:A 0
9 *3:10 *538:A 0
10 *3:10 *539:A 0.000242236
11 *3:10 *125:14 8.01445e-05
12 *3:10 *194:61 0.000111716
*RES
1 *538:X *3:10 30.2897 
2 *3:10 DATA[11] 24.1458 
*END

*D_NET *4 0.000962161
*CONN
*P DATA[12] O
*I *539:X O *D sg13g2_buf_1
*CAP
1 DATA[12] 0.000481081
2 *539:X 0.000481081
3 DATA[12] DATA[8] 0
4 DATA[12] *537:A 0
5 DATA[12] *539:A 0
6 DATA[12] *182:8 0
7 DATA[10] DATA[12] 0
*RES
1 *539:X DATA[12] 45.2375 
*END

*D_NET *5 0.00185926
*CONN
*P DATA[13] O
*I *540:X O *D sg13g2_buf_1
*CAP
1 DATA[13] 0.000651288
2 *540:X 0.000210064
3 *5:10 0.000861352
4 DATA[13] DATA[7] 0
5 DATA[13] DATA[8] 0
6 DATA[13] *463:A1 0
7 DATA[13] *531:A 0
8 DATA[13] *532:A 1.54008e-05
9 *5:10 *531:A 4.78356e-05
10 *5:10 *70:44 7.33225e-05
11 *5:10 *208:12 0
12 *3:10 DATA[13] 0
*RES
1 *540:X *5:10 41.9055 
2 *5:10 DATA[13] 47.4006 
*END

*D_NET *6 0.0006429
*CONN
*P DATA[14] O
*I *541:X O *D sg13g2_buf_1
*CAP
1 DATA[14] 0.00032145
2 *541:X 0.00032145
3 DATA[14] DATA[5] 0
4 DATA[10] DATA[14] 0
*RES
1 *541:X DATA[14] 43.7234 
*END

*D_NET *7 0.00521449
*CONN
*P DATA[15] O
*I *542:X O *D sg13g2_buf_1
*CAP
1 DATA[15] 0.000702734
2 *542:X 0.000791296
3 *7:8 0.00149403
4 DATA[15] DATA[3] 0
5 DATA[15] DATA[4] 0
6 DATA[15] DATA[6] 0
7 DATA[15] *23:12 0
8 DATA[15] *182:12 0.000791041
9 *7:8 *371:A 0
10 *7:8 *39:18 0
11 *7:8 *41:99 0.00044457
12 *7:8 *121:23 0
13 *7:8 *149:8 0
14 *7:8 *150:8 0.000387529
15 *7:8 *154:29 0
16 *7:8 *189:117 0.000603292
17 *7:8 *191:8 0
*RES
1 *542:X *7:8 49.0022 
2 *7:8 DATA[15] 48.173 
*END

*D_NET *8 0.00114219
*CONN
*P DATA[16] O
*I *543:X O *D sg13g2_buf_1
*CAP
1 DATA[16] 0.00027257
2 *543:X 0.00027257
3 DATA[16] DATA[17] 0
4 DATA[16] DATA[5] 0
5 DATA[16] *541:A 4.77425e-05
6 DATA[16] *13:8 4.78524e-05
7 DATA[16] *23:8 0.000501459
*RES
1 *543:X DATA[16] 43.7234 
*END

*D_NET *9 0.00123259
*CONN
*P DATA[17] O
*I *524:X O *D sg13g2_buf_1
*CAP
1 DATA[17] 0.000479348
2 *524:X 0.000479348
3 DATA[17] DATA[3] 0
4 DATA[17] *13:8 0
5 DATA[17] *23:8 0
6 DATA[17] *191:8 0.000128991
7 DATA[17] *192:67 0.000144899
8 DATA[17] *215:8 0
9 DATA[16] DATA[17] 0
*RES
1 *524:X DATA[17] 45.3611 
*END

*D_NET *10 0.00566265
*CONN
*P DATA[1] O
*I *525:X O *D sg13g2_buf_1
*CAP
1 DATA[1] 0.00126602
2 *525:X 0.000110342
3 *10:8 0.00137636
4 DATA[1] DATA[2] 0
5 DATA[1] DATA[4] 0
6 DATA[1] *27:20 0.00289447
7 DATA[1] *39:8 0
8 DATA[1] *178:24 0
9 DATA[1] *187:10 0
10 DATA[1] *216:10 0
11 *10:8 *351:A 0
12 *10:8 *492:RESET_B 1.54556e-05
*RES
1 *525:X *10:8 40.9682 
2 *10:8 DATA[1] 17.4946 
*END

*D_NET *11 0.00403456
*CONN
*P DATA[2] O
*I *526:X O *D sg13g2_buf_1
*CAP
1 DATA[2] 0.00120828
2 *526:X 2.41961e-05
3 *11:8 0.00123248
4 DATA[2] *21:12 0
5 DATA[2] *22:8 0.0015696
6 DATA[2] *178:24 0
7 DATA[2] *187:10 0
8 DATA[2] *196:24 0
9 DATA[0] DATA[2] 0
10 DATA[1] DATA[2] 0
*RES
1 *526:X *11:8 40.3193 
2 *11:8 DATA[2] 16.5058 
*END

*D_NET *12 0.00242283
*CONN
*P DATA[3] O
*I *527:X O *D sg13g2_buf_1
*CAP
1 DATA[3] 0.000761725
2 *527:X 0.000761725
3 DATA[3] DATA[6] 0
4 DATA[3] *503:A 0.000272067
5 DATA[3] *13:8 0
6 DATA[3] *182:12 0.000627313
7 DATA[15] DATA[3] 0
8 DATA[17] DATA[3] 0
*RES
1 *527:X DATA[3] 48.1525 
*END

*D_NET *13 0.0050155
*CONN
*P DATA[4] O
*I *528:X O *D sg13g2_buf_1
*CAP
1 DATA[4] 0.000334165
2 *528:X 0.00164774
3 *13:8 0.0019819
4 DATA[4] *39:8 2.22695e-05
5 DATA[4] *182:20 0
6 *13:8 DATA[5] 8.02276e-05
7 *13:8 DATA[6] 0
8 *13:8 *475:B1 0
9 *13:8 *503:A 0.00053125
10 *13:8 *505:A 8.02595e-05
11 *13:8 *541:A 0
12 *13:8 *543:A 0.000242089
13 *13:8 *23:12 0
14 *13:8 *27:14 0
15 *13:8 *39:46 0
16 *13:8 *127:14 0
17 *13:8 *182:12 0
18 *13:8 *192:67 0
19 *13:8 *192:77 0
20 *13:8 *193:10 4.77425e-05
21 *13:8 *194:61 0
22 *13:8 *196:70 0
23 DATA[15] DATA[4] 0
24 DATA[16] *13:8 4.78524e-05
25 DATA[17] *13:8 0
26 DATA[1] DATA[4] 0
27 DATA[3] *13:8 0
*RES
1 *528:X *13:8 36.0886 
2 *13:8 DATA[4] 23.9706 
*END

*D_NET *14 0.000840667
*CONN
*P DATA[5] O
*I *529:X O *D sg13g2_buf_1
*CAP
1 DATA[5] 0.00034039
2 *529:X 0.00034039
3 DATA[5] *541:A 7.96596e-05
4 DATA[14] DATA[5] 0
5 DATA[16] DATA[5] 0
6 *13:8 DATA[5] 8.02276e-05
*RES
1 *529:X DATA[5] 43.9398 
*END

*D_NET *15 0.00181078
*CONN
*P DATA[6] O
*I *530:X O *D sg13g2_buf_1
*CAP
1 DATA[6] 0.000632099
2 *530:X 0.000632099
3 DATA[6] *27:14 0.000272959
4 DATA[6] *189:131 0
5 DATA[6] *192:77 0.000273622
6 DATA[15] DATA[6] 0
7 DATA[3] DATA[6] 0
8 *13:8 DATA[6] 0
*RES
1 *530:X DATA[6] 46.8753 
*END

*D_NET *16 0.00304156
*CONN
*P DATA[7] O
*I *531:X O *D sg13g2_buf_1
*CAP
1 DATA[7] 0.000710737
2 *531:X 0.000487013
3 *16:10 0.00119775
4 *16:10 *531:A 8.02598e-05
5 *16:10 *18:8 0.000565802
6 DATA[11] DATA[7] 0
7 DATA[13] DATA[7] 0
*RES
1 *531:X *16:10 45.7062 
2 *16:10 DATA[7] 8.34815 
*END

*D_NET *17 0.00078951
*CONN
*P DATA[8] O
*I *532:X O *D sg13g2_buf_1
*CAP
1 DATA[8] 0.000394755
2 *532:X 0.000394755
3 DATA[8] *467:A 0
4 DATA[8] *208:12 0
5 DATA[12] DATA[8] 0
6 DATA[13] DATA[8] 0
*RES
1 *532:X DATA[8] 44.7122 
*END

*D_NET *18 0.00330589
*CONN
*P DATA[9] O
*I *533:X O *D sg13g2_buf_1
*CAP
1 DATA[9] 0.000706149
2 *533:X 0.000663894
3 *18:8 0.00137004
4 DATA[11] DATA[9] 0
5 *16:10 *18:8 0.000565802
*RES
1 *533:X *18:8 48.1061 
2 *18:8 DATA[9] 8.59535 
*END

*D_NET *21 0.00271046
*CONN
*P clk I
*I *497:A I *D sg13g2_buf_16
*CAP
1 clk 0.000706081
2 *497:A 0
3 *21:20 0
4 *21:14 0.000649149
5 *21:12 0.00135523
6 *21:14 *113:18 0
7 *21:14 *178:16 0
8 *21:14 *186:12 0
9 DATA[0] *21:12 0
10 DATA[2] *21:12 0
11 *1:8 *21:12 0
*RES
1 clk *21:12 48.3945 
2 *21:12 *21:14 7.4572 
3 *21:14 *21:20 40 
4 *21:20 *497:A 20 
*END

*D_NET *22 0.00426177
*CONN
*P o_sign O
*I *535:X O *D sg13g2_buf_1
*CAP
1 o_sign 0.00083788
2 *535:X 0.000508207
3 *22:8 0.00134609
4 *22:8 *26:10 0
5 *22:8 *178:24 0
6 *22:8 *187:10 0
7 DATA[0] o_sign 0
8 DATA[2] *22:8 0.0015696
*RES
1 *535:X *22:8 47.2718 
2 *22:8 o_sign 49.5326 
*END

*D_NET *23 0.0071103
*CONN
*P o_signB O
*I *536:X O *D sg13g2_buf_1
*CAP
1 o_signB 0.000103145
2 *536:X 0.00100534
3 *23:12 0.00195994
4 *23:8 0.00286214
5 *23:8 *97:10 0.000232793
6 *23:8 *128:10 0.000445484
7 *23:8 *192:52 0
8 *23:8 *193:10 0
9 *23:8 *193:12 0
10 *23:8 *215:8 0
11 *23:12 *522:A 0
12 *23:12 *182:12 0
13 DATA[15] *23:12 0
14 DATA[16] *23:8 0.000501459
15 DATA[17] *23:8 0
16 *13:8 *23:12 0
*RES
1 *536:X *23:8 49.7438 
2 *23:8 *23:12 41.5167 
3 *23:12 o_signB 21.1793 
*END

*D_NET *24 0.00557273
*CONN
*P rst I
*I *523:A I *D sg13g2_buf_1
*CAP
1 rst 0.000828486
2 *523:A 0.000450545
3 *24:27 0.00126555
4 *24:21 0.00164349
5 *523:A *28:10 0.000286322
6 *523:A *41:16 0.000207649
7 *523:A *132:8 0
8 *523:A *175:10 0
9 *523:A *200:14 0.000207506
10 *523:A *206:39 0.00018091
11 *24:21 *34:10 0
12 *24:27 *190:51 0.000502276
13 *24:27 *204:28 0
*RES
1 rst *24:21 30.3824 
2 *24:21 *24:27 49.6202 
3 *24:27 *523:A 45.2118 
*END

*D_NET *25 0.00185684
*CONN
*I *496:D I *D sg13g2_dfrbpq_1
*I *371:X O *D sg13g2_and2_1
*CAP
1 *496:D 0
2 *371:X 0.000446942
3 *25:8 0.000446942
4 *25:8 *101:18 7.57164e-05
5 *25:8 *102:20 0
6 *25:8 *129:39 0
7 *25:8 *177:8 0.000705458
8 *25:8 *187:33 0
9 *25:8 *207:91 0.000181781
10 *25:8 *209:14 0
*RES
1 *371:X *25:8 45.047 
2 *25:8 *496:D 40 
*END

*D_NET *26 0.000938379
*CONN
*I *495:D I *D sg13g2_dfrbpq_1
*I *363:Y O *D sg13g2_xnor2_1
*CAP
1 *495:D 0
2 *363:Y 0.000469189
3 *26:10 0.000469189
4 *26:10 *495:CLK 0
5 *26:10 *42:14 0
6 *26:10 *178:24 0
7 *26:10 *187:10 0
8 *22:8 *26:10 0
*RES
1 *363:Y *26:10 43.9449 
2 *26:10 *495:D 40 
*END

*D_NET *27 0.00938042
*CONN
*I *503:A I *D sg13g2_buf_1
*I *502:A I *D sg13g2_buf_1
*I *496:Q O *D sg13g2_dfrbpq_1
*CAP
1 *503:A 0.000321742
2 *502:A 0
3 *496:Q 0.000411262
4 *27:20 0.00118436
5 *27:14 0.00177753
6 *27:8 0.000682688
7 *503:A *182:12 0
8 *27:14 *522:A 0
9 *27:14 *174:18 0
10 *27:14 *174:20 0
11 *27:14 *192:83 0
12 *27:20 *348:A1 0.000159598
13 *27:20 *350:A 0
14 *27:20 *485:A 0.000242285
15 *27:20 *525:A 0
16 *27:20 *39:8 0
17 *27:20 *50:18 0
18 *27:20 *139:10 0.00023464
19 *27:20 *173:24 0
20 *27:20 *174:35 0
21 *27:20 *191:26 0
22 *27:20 *196:16 0
23 *27:20 *212:8 0.000395568
24 DATA[1] *27:20 0.00289447
25 DATA[3] *503:A 0.000272067
26 DATA[6] *27:14 0.000272959
27 *13:8 *503:A 0.00053125
28 *13:8 *27:14 0
*RES
1 *496:Q *27:8 40.8446 
2 *27:8 *27:14 45.7268 
3 *27:14 *27:20 36.7993 
4 *27:20 *502:A 20 
5 *496:Q *503:A 43.5638 
*END

*D_NET *28 0.00147147
*CONN
*I *520:A I *D sg13g2_buf_1
*I *488:Q O *D sg13g2_dfrbpq_1
*CAP
1 *520:A 0.000130264
2 *488:Q 0.000327196
3 *28:10 0.00045746
4 *520:A *479:A 0.000175174
5 *520:A *206:16 0
6 *28:10 *33:26 4.7526e-05
7 *28:10 *175:10 0
8 *28:10 *175:57 0
9 *28:10 *199:26 4.7526e-05
10 *28:10 *206:39 0
11 *523:A *28:10 0.000286322
*RES
1 *488:Q *28:10 43.1415 
2 *28:10 *520:A 41.1845 
*END

*D_NET *29 0.00308996
*CONN
*I *518:A I *D sg13g2_buf_1
*I *489:Q O *D sg13g2_dfrbpq_1
*CAP
1 *518:A 0.000656848
2 *489:Q 0.000582987
3 *29:10 0.00123984
4 *518:A *348:B1 0
5 *518:A *407:B1 0.000245579
6 *518:A *408:B1 0
7 *518:A *408:A2 0
8 *518:A *416:A1 0
9 *518:A *510:A 0
10 *518:A *41:109 0
11 *518:A *60:6 0
12 *518:A *175:57 0.000208495
13 *518:A *199:12 0
14 *518:A *207:8 7.97166e-05
15 *29:10 *488:CLK 0
16 *29:10 *31:12 7.6498e-05
17 *29:10 *44:8 0
18 *29:10 *190:86 0
19 *29:10 *190:96 0
*RES
1 *489:Q *29:10 44.8101 
2 *29:10 *518:A 46.1291 
*END

*D_NET *30 0.00047246
*CONN
*I *489:D I *D sg13g2_dfrbpq_1
*I *479:Y O *D sg13g2_xnor2_1
*CAP
1 *489:D 0.000196662
2 *479:Y 0.000196662
3 *489:D *337:B 0
4 *489:D *521:A 0
5 *489:D *175:28 7.91362e-05
*RES
1 *479:Y *489:D 41.7819 
*END

*D_NET *31 0.0101873
*CONN
*I *433:A1 I *D sg13g2_a221oi_1
*I *476:A_N I *D sg13g2_nand2b_1
*I *410:B I *D sg13g2_nor2_1
*I *516:A I *D sg13g2_buf_1
*I *490:Q O *D sg13g2_dfrbpq_1
*CAP
1 *433:A1 3.55282e-05
2 *476:A_N 0.000489912
3 *410:B 4.70279e-05
4 *516:A 0
5 *490:Q 0.000529473
6 *31:45 0.000698865
7 *31:39 0.00133633
8 *31:35 0.000971364
9 *31:20 0
10 *31:16 0.00144137
11 *31:12 0.00122959
12 *410:B *468:A2 0
13 *410:B *468:B1 0
14 *410:B *79:6 1.54556e-05
15 *410:B *79:41 6.47823e-05
16 *433:A1 *433:B1 1.54282e-05
17 *476:A_N *413:C 0.000232373
18 *476:A_N *447:A1 0
19 *476:A_N *41:85 0
20 *476:A_N *43:10 0.000176083
21 *476:A_N *97:10 0
22 *476:A_N *97:14 7.92096e-05
23 *476:A_N *129:16 0.00011176
24 *476:A_N *152:34 1.54285e-05
25 *476:A_N *209:22 0.000176625
26 *31:12 *346:B 4.77425e-05
27 *31:12 *498:A 0
28 *31:12 *525:A 0
29 *31:12 *41:109 0
30 *31:12 *141:14 0
31 *31:12 *172:15 0
32 *31:12 *190:10 0
33 *31:12 *190:86 0
34 *31:12 *190:96 0
35 *31:16 *158:18 0
36 *31:16 *158:26 0
37 *31:16 *189:44 0.000664188
38 *31:16 *205:33 0
39 *31:35 *375:A 0
40 *31:35 *376:B1 0.000445454
41 *31:35 *404:B1 0
42 *31:35 *52:8 7.31628e-05
43 *31:35 *97:29 0.000128662
44 *31:35 *99:16 0.00018128
45 *31:35 *158:18 0
46 *31:35 *164:21 0.000159096
47 *31:35 *189:44 0.000308828
48 *31:35 *194:22 0
49 *31:35 *207:118 0.000234224
50 *31:39 *404:B1 7.51285e-05
51 *31:39 *413:C 0.000126441
52 *31:39 *97:29 0
53 *31:39 *209:22 0
54 *31:45 *41:81 0
55 *31:45 *97:29 0
56 *31:45 *192:123 0
57 *29:10 *31:12 7.6498e-05
*RES
1 *490:Q *31:12 45.1603 
2 *31:12 *31:16 27.0246 
3 *31:16 *31:20 40 
4 *31:20 *516:A 20 
5 *31:16 *31:35 28.1726 
6 *31:35 *31:39 2.369 
7 *31:39 *31:45 47.6735 
8 *31:45 *410:B 40.5356 
9 *31:39 *476:A_N 45.1397 
10 *31:35 *433:A1 40.3193 
*END

*D_NET *32 0.000864478
*CONN
*I *490:D I *D sg13g2_dfrbpq_1
*I *478:X O *D sg13g2_xor2_1
*CAP
1 *490:D 0
2 *478:X 0.000264919
3 *32:12 0.000264919
4 *32:12 *340:A2 0
5 *32:12 *340:B1 0
6 *32:12 *521:A 0.000243969
7 *32:12 *34:10 1.54556e-05
8 *32:12 *131:10 0
9 *32:12 *138:16 0
10 *32:12 *139:10 0
11 *32:12 *211:16 7.52158e-05
*RES
1 *478:X *32:12 42.6265 
2 *32:12 *490:D 40 
*END

*D_NET *33 0.00437854
*CONN
*I *514:A I *D sg13g2_buf_1
*I *491:Q O *D sg13g2_dfrbpq_1
*CAP
1 *514:A 0
2 *491:Q 0.000552289
3 *33:26 0.00116158
4 *33:8 0.00171387
5 *33:8 *139:10 0
6 *33:26 *489:CLK 0
7 *33:26 *490:RESET_B 0
8 *33:26 *491:RESET_B 0.000565807
9 *33:26 *75:12 0
10 *33:26 *199:26 0
11 *33:26 *203:16 0.000337475
12 *33:26 *211:8 0
13 *33:26 *211:37 0
14 *28:10 *33:26 4.7526e-05
*RES
1 *491:Q *33:8 45.7886 
2 *33:8 *33:26 32.0716 
3 *33:26 *514:A 20 
*END

*D_NET *34 0.00128081
*CONN
*I *491:D I *D sg13g2_dfrbpq_1
*I *343:X O *D sg13g2_xor2_1
*CAP
1 *491:D 0
2 *343:X 0.000341843
3 *34:10 0.000341843
4 *34:10 *344:A2 0
5 *34:10 *521:A 0.000274583
6 *34:10 *138:16 0
7 *34:10 *139:8 0.000307084
8 *34:10 *139:10 0
9 *24:21 *34:10 0
10 *32:12 *34:10 1.54556e-05
*RES
1 *343:X *34:10 43.8213 
2 *34:10 *491:D 40 
*END

*D_NET *35 0.0132617
*CONN
*I *359:A I *D sg13g2_or2_1
*I *470:B_N I *D sg13g2_nor2b_1
*I *509:A I *D sg13g2_buf_1
*I *510:A I *D sg13g2_buf_1
*I *492:Q O *D sg13g2_dfrbpq_1
*CAP
1 *359:A 0
2 *470:B_N 0.000105067
3 *509:A 0
4 *510:A 0.000356667
5 *492:Q 0.000218599
6 *35:49 0.000532285
7 *35:41 0.00143152
8 *35:33 0.00193711
9 *35:16 0.00168718
10 *35:10 0.000406173
11 *470:B_N *193:24 0.000144
12 *510:A *371:A 0
13 *510:A *42:14 0.000824341
14 *510:A *145:8 0.000556277
15 *510:A *199:12 0.000110889
16 *35:10 *493:RESET_B 0.000209805
17 *35:10 *187:33 0.000240937
18 *35:16 *50:12 0
19 *35:33 *37:12 0
20 *35:33 *42:14 0.000967817
21 *35:33 *121:23 0.00040202
22 *35:33 *145:8 0.000104036
23 *35:33 *151:12 8.00842e-05
24 *35:33 *153:8 0
25 *35:33 *172:48 0
26 *35:33 *174:14 0
27 *35:33 *174:18 0.000176537
28 *35:33 *174:64 0
29 *35:33 *189:131 0
30 *35:41 *359:B 4.77425e-05
31 *35:41 *453:B1 0
32 *35:41 *473:A 4.77425e-05
33 *35:41 *473:B 0
34 *35:41 *477:C 0.000107036
35 *35:41 *112:20 0
36 *35:41 *119:12 0.000403362
37 *35:41 *121:23 8.00842e-05
38 *35:41 *127:14 0
39 *35:41 *151:12 0
40 *35:41 *174:64 0
41 *35:41 *178:12 6.98766e-05
42 *35:41 *189:117 0
43 *35:41 *193:18 0
44 *35:41 *193:24 0.000144722
45 *35:49 *368:B 0.000143769
46 *35:49 *413:A 4.79124e-05
47 *35:49 *470:A 0.000551792
48 *35:49 *41:64 0.000499463
49 *35:49 *41:81 5.31523e-05
50 *35:49 *72:35 7.5468e-05
51 *35:49 *170:20 0.000498198
52 *35:49 *174:64 0
53 *35:49 *189:8 0
54 *35:49 *189:18 0
55 *35:49 *195:19 0
56 *35:49 *198:6 0
57 *518:A *510:A 0
*RES
1 *492:Q *35:10 42.3999 
2 *35:10 *35:16 41.4008 
3 *35:16 *510:A 45.2118 
4 *35:16 *35:33 32.1025 
5 *35:33 *35:41 7.828 
6 *35:41 *35:49 46.7259 
7 *35:49 *509:A 20 
8 *35:41 *470:B_N 20.9682 
9 *35:33 *359:A 20 
*END

*D_NET *36 0.000509073
*CONN
*I *492:D I *D sg13g2_dfrbpq_1
*I *347:X O *D sg13g2_xor2_1
*CAP
1 *492:D 0.000165843
2 *347:X 0.000165843
3 *492:D *347:B 0
4 *492:D *141:14 0.000177388
5 *492:D *190:10 0
*RES
1 *347:X *492:D 41.7819 
*END

*D_NET *37 0.00326004
*CONN
*I *508:A I *D sg13g2_buf_1
*I *493:Q O *D sg13g2_dfrbpq_1
*CAP
1 *508:A 0.000390273
2 *493:Q 0.0012015
3 *37:12 0.00159177
4 *508:A *172:15 0
5 *508:A *196:40 0
6 *508:A *199:12 7.6498e-05
7 *37:12 *40:10 0
8 *37:12 *42:14 0
9 *37:12 *154:29 0
10 *37:12 *172:48 0
11 *37:12 *192:83 0
12 *37:12 *196:40 0
13 *35:33 *37:12 0
*RES
1 *493:Q *37:12 49.888 
2 *37:12 *508:A 43.5638 
*END

*D_NET *38 0.000903286
*CONN
*I *493:D I *D sg13g2_dfrbpq_1
*I *351:X O *D sg13g2_xor2_1
*CAP
1 *493:D 0.000282144
2 *351:X 0.000282144
3 *493:D *349:A 0.000338998
4 *493:D *351:B 0
5 *493:D *144:21 0
*RES
1 *351:X *493:D 43.0797 
*END

*D_NET *39 0.00665319
*CONN
*I *506:A I *D sg13g2_buf_1
*I *477:B I *D sg13g2_nand3_1
*I *504:A I *D sg13g2_buf_1
*I *494:Q O *D sg13g2_dfrbpq_1
*CAP
1 *506:A 0
2 *477:B 0
3 *504:A 0
4 *494:Q 0.000192101
5 *39:46 0.000514574
6 *39:31 4.47723e-05
7 *39:25 0.000702966
8 *39:18 0.000425392
9 *39:12 0.0013629
10 *39:8 0.000985986
11 *39:8 *179:8 0
12 *39:8 *189:131 0
13 *39:8 *192:83 0
14 *39:8 *212:8 0
15 *39:12 *178:16 0
16 *39:18 *149:8 0.000125261
17 *39:18 *150:8 0
18 *39:18 *189:117 0
19 *39:18 *191:8 0.000578941
20 *39:18 *191:16 0.000442045
21 *39:25 *70:33 0
22 *39:25 *151:18 8.09323e-05
23 *39:25 *178:16 0
24 *39:31 *174:64 6.39133e-05
25 *39:46 *505:A 0
26 *39:46 *70:44 0
27 *39:46 *112:12 0
28 *39:46 *113:18 0
29 *39:46 *127:14 0.00022912
30 *39:46 *151:18 0.00044119
31 *39:46 *178:16 0
32 *39:46 *181:8 0
33 *39:46 *194:10 0.000112089
34 *39:46 *194:22 0.000280972
35 *39:46 *194:61 4.77699e-05
36 DATA[1] *39:8 0
37 DATA[4] *39:8 2.22695e-05
38 *7:8 *39:18 0
39 *13:8 *39:46 0
40 *27:20 *39:8 0
*RES
1 *494:Q *39:8 42.3278 
2 *39:8 *39:12 28.5387 
3 *39:12 *39:18 44.7998 
4 *39:18 *504:A 20 
5 *39:12 *39:25 1.6171 
6 *39:25 *39:31 40.4274 
7 *39:31 *477:B 20 
8 *39:25 *39:46 45.9019 
9 *39:46 *506:A 20 
*END

*D_NET *40 0.0019579
*CONN
*I *494:D I *D sg13g2_dfrbpq_1
*I *354:Y O *D sg13g2_xnor2_1
*CAP
1 *494:D 0.000126233
2 *354:Y 0.000441634
3 *40:10 0.000567867
4 *494:D *42:14 0
5 *494:D *191:20 0
6 *40:10 *353:B 0
7 *40:10 *50:18 0
8 *40:10 *191:20 0.000400189
9 *40:10 *196:40 2.1786e-05
10 *40:10 *216:14 0.000400189
11 *37:12 *40:10 0
*RES
1 *354:Y *40:10 44.532 
2 *40:10 *494:D 41.3184 
*END

*D_NET *41 0.0165501
*CONN
*I *358:A I *D sg13g2_nor2_1
*I *391:A I *D sg13g2_xnor2_1
*I *488:D I *D sg13g2_dfrbpq_1
*I *459:A I *D sg13g2_nor2_1
*I *412:A2 I *D sg13g2_o21ai_1
*I *386:A2 I *D sg13g2_a21oi_1
*I *355:B I *D sg13g2_nor2_1
*I *338:A1 I *D sg13g2_o21ai_1
*I *332:Y O *D sg13g2_inv_1
*CAP
1 *358:A 0
2 *391:A 0
3 *488:D 0
4 *459:A 8.91461e-05
5 *412:A2 8.26489e-05
6 *386:A2 2.77263e-05
7 *355:B 0
8 *338:A1 0
9 *332:Y 0
10 *41:109 0.000627572
11 *41:99 0.00147602
12 *41:85 0.00109959
13 *41:81 0.00081784
14 *41:64 0.00109105
15 *41:53 0.00201858
16 *41:51 0.00211988
17 *41:31 6.60665e-05
18 *41:25 0.000312818
19 *41:16 0.0010505
20 *41:8 0.00131756
21 *41:6 0.000667202
22 *412:A2 *412:B1 1.54008e-05
23 *412:A2 *412:A1 1.54008e-05
24 *41:8 *206:62 0
25 *41:8 *210:27 0
26 *41:16 *338:A2 0
27 *41:16 *200:14 0
28 *41:16 *204:62 0
29 *41:16 *206:51 0
30 *41:16 *210:23 0
31 *41:25 *332:A 0
32 *41:25 *437:A 0
33 *41:25 *204:62 0.000112686
34 *41:25 *204:77 1.54008e-05
35 *41:25 *207:55 0
36 *41:25 *210:23 0.000177083
37 *41:31 *147:10 0
38 *41:51 *168:16 0
39 *41:51 *199:43 0.000283805
40 *41:51 *201:33 0
41 *41:51 *206:62 0
42 *41:51 *206:71 0
43 *41:51 *210:27 0
44 *41:51 *210:38 0
45 *41:51 *210:57 0
46 *41:53 *99:8 0.000236274
47 *41:53 *112:12 0
48 *41:53 *170:20 0
49 *41:53 *171:8 0
50 *41:53 *210:72 0
51 *41:64 *112:12 0
52 *41:64 *159:8 0.000180894
53 *41:64 *170:20 0
54 *41:81 *72:27 0
55 *41:81 *112:12 0
56 *41:81 *192:123 0
57 *41:81 *209:18 0
58 *41:81 *209:91 0
59 *41:85 *429:B 0.000176679
60 *41:85 *97:10 0
61 *41:85 *129:16 0
62 *41:85 *149:18 0
63 *41:99 *370:A1 0
64 *41:99 *371:A 0
65 *41:99 *149:8 0
66 *41:99 *175:57 0.000166113
67 *41:99 *207:83 0.000604318
68 *41:99 *211:76 7.48178e-05
69 *41:99 *211:80 0.000143576
70 *41:99 *211:106 0.000103389
71 *41:109 *391:B 3.13905e-05
72 *41:109 *56:59 0
73 *41:109 *175:57 0.000143784
74 *41:109 *205:33 0
75 *41:109 *211:80 0
76 *41:109 *211:86 0
77 *476:A_N *41:85 0
78 *518:A *41:109 0
79 *523:A *41:16 0.000207649
80 *7:8 *41:99 0.00044457
81 *31:12 *41:109 0
82 *31:45 *41:81 0
83 *35:49 *41:64 0.000499463
84 *35:49 *41:81 5.31523e-05
*RES
1 *332:Y *41:6 40 
2 *41:6 *41:8 0.5974 
3 *41:8 *41:16 31.5566 
4 *41:16 *338:A1 20 
5 *41:8 *41:25 22.266 
6 *41:25 *41:31 40.8446 
7 *41:31 *355:B 20 
8 *41:25 *386:A2 20.3502 
9 *41:6 *41:51 45.9225 
10 *41:51 *41:53 11.4742 
11 *41:53 *412:A2 40.7519 
12 *41:53 *41:64 4.3054 
13 *41:64 *459:A 40.7519 
14 *41:64 *41:81 45.2118 
15 *41:81 *41:85 22.4823 
16 *41:85 *41:99 49.4142 
17 *41:99 *41:109 45.4384 
18 *41:109 *488:D 20 
19 *41:99 *391:A 20 
20 *41:85 *358:A 20 
*END

*D_NET *42 0.00567856
*CONN
*I *495:RESET_B I *D sg13g2_dfrbpq_1
*I *334:Y O *D sg13g2_inv_1
*CAP
1 *495:RESET_B 0
2 *334:Y 6.97624e-05
3 *42:14 0.00180172
4 *42:8 0.00187148
5 *42:8 *525:A 0
6 *42:14 *369:A 0
7 *42:14 *369:B 0.000143446
8 *42:14 *370:A2 0
9 *42:14 *474:A 0
10 *42:14 *474:B 0
11 *42:14 *43:18 0
12 *42:14 *154:29 0
13 *42:14 *177:8 0
14 *494:D *42:14 0
15 *510:A *42:14 0.000824341
16 *26:10 *42:14 0
17 *35:33 *42:14 0.000967817
18 *37:12 *42:14 0
*RES
1 *334:Y *42:8 40.5356 
2 *42:8 *42:14 37.51 
3 *42:14 *495:RESET_B 20 
*END

*D_NET *43 0.00274742
*CONN
*I *496:RESET_B I *D sg13g2_dfrbpq_1
*I *480:Y O *D sg13g2_inv_1
*CAP
1 *496:RESET_B 0
2 *480:Y 0.000150988
3 *43:18 0.000774218
4 *43:10 0.000925206
5 *43:10 *97:10 0.00012596
6 *43:10 *97:14 0
7 *43:10 *149:18 0
8 *43:10 *209:91 0
9 *43:18 *72:27 0.00031099
10 *43:18 *101:18 0
11 *43:18 *113:18 0
12 *43:18 *129:39 7.31655e-05
13 *43:18 *152:28 0.000210811
14 *43:18 *209:18 0
15 *476:A_N *43:10 0.000176083
16 *42:14 *43:18 0
*RES
1 *480:Y *43:10 41.5965 
2 *43:10 *43:18 47.3748 
3 *43:18 *496:RESET_B 40 
*END

*D_NET *44 0.00121712
*CONN
*I *488:RESET_B I *D sg13g2_dfrbpq_1
*I *481:Y O *D sg13g2_inv_1
*CAP
1 *488:RESET_B 0
2 *481:Y 0.000608559
3 *44:8 0.000608559
4 *44:8 *175:57 0
5 *44:8 *199:26 0
6 *29:10 *44:8 0
*RES
1 *481:Y *44:8 45.7886 
2 *44:8 *488:RESET_B 40 
*END

*D_NET *45 0.00117493
*CONN
*I *489:RESET_B I *D sg13g2_dfrbpq_1
*I *482:Y O *D sg13g2_inv_1
*CAP
1 *489:RESET_B 0.000430394
2 *482:Y 0.000430394
3 *489:RESET_B *336:A 0
4 *489:RESET_B *521:A 0
5 *489:RESET_B *175:28 0
6 *489:RESET_B *206:16 0
7 *489:RESET_B *206:39 4.12877e-05
8 *489:RESET_B *211:37 0.000207942
9 *489:RESET_B *211:48 6.49135e-05
*RES
1 *482:Y *489:RESET_B 44.0479 
*END

*D_NET *46 0.00215234
*CONN
*I *490:RESET_B I *D sg13g2_dfrbpq_1
*I *483:Y O *D sg13g2_inv_1
*CAP
1 *490:RESET_B 0.000958242
2 *483:Y 0.000958242
3 *490:RESET_B *488:CLK 0
4 *490:RESET_B *489:CLK 0.000235859
5 *490:RESET_B *491:RESET_B 0
6 *490:RESET_B *47:12 0
7 *490:RESET_B *173:33 0
8 *490:RESET_B *203:16 0
9 *33:26 *490:RESET_B 0
*RES
1 *483:Y *490:RESET_B 49.0743 
*END

*D_NET *47 0.00361643
*CONN
*I *491:RESET_B I *D sg13g2_dfrbpq_1
*I *484:Y O *D sg13g2_inv_1
*CAP
1 *491:RESET_B 0.000425356
2 *484:Y 0.000834116
3 *47:12 0.00125947
4 *491:RESET_B *491:CLK 0
5 *491:RESET_B *521:A 0
6 *47:12 *488:CLK 0.000531679
7 *47:12 *190:12 0
8 *47:12 *199:26 0
9 *490:RESET_B *491:RESET_B 0
10 *490:RESET_B *47:12 0
11 *33:26 *491:RESET_B 0.000565807
*RES
1 *484:Y *47:12 48.0031 
2 *47:12 *491:RESET_B 44.7792 
*END

*D_NET *48 0.00124493
*CONN
*I *492:RESET_B I *D sg13g2_dfrbpq_1
*I *485:Y O *D sg13g2_inv_1
*CAP
1 *492:RESET_B 0.000550817
2 *485:Y 0.000550817
3 *492:RESET_B *347:A 4.77425e-05
4 *492:RESET_B *348:B1 0
5 *492:RESET_B *351:A 0
6 *492:RESET_B *485:A 0
7 *492:RESET_B *525:A 8.00995e-05
8 *492:RESET_B *178:24 0
9 *10:8 *492:RESET_B 1.54556e-05
*RES
1 *485:Y *492:RESET_B 45.4225 
*END

*D_NET *49 0.00207244
*CONN
*I *493:RESET_B I *D sg13g2_dfrbpq_1
*I *486:Y O *D sg13g2_inv_1
*CAP
1 *493:RESET_B 0.00093132
2 *486:Y 0.00093132
3 *493:RESET_B *352:B1 0
4 *493:RESET_B *187:33 0
5 *35:10 *493:RESET_B 0.000209805
*RES
1 *486:Y *493:RESET_B 48.5284 
*END

*D_NET *50 0.00566523
*CONN
*I *494:RESET_B I *D sg13g2_dfrbpq_1
*I *487:Y O *D sg13g2_inv_1
*CAP
1 *494:RESET_B 0
2 *487:Y 0.000176641
3 *50:18 0.000291238
4 *50:12 0.00142297
5 *50:8 0.00130837
6 *50:8 *376:A2 0.000128943
7 *50:8 *82:12 0.000445117
8 *50:8 *102:12 0.000767534
9 *50:8 *148:42 0
10 *50:12 *70:12 0.000571528
11 *50:12 *186:12 0
12 *50:12 *196:42 0
13 *50:12 *196:119 0
14 *50:18 *353:B 0.000181301
15 *50:18 *113:18 0
16 *50:18 *174:35 0
17 *50:18 *191:26 0
18 *50:18 *192:83 0.000371586
19 *50:18 *196:40 0
20 *27:20 *50:18 0
21 *35:16 *50:12 0
22 *40:10 *50:18 0
*RES
1 *487:Y *50:8 43.5638 
2 *50:8 *50:12 30.2691 
3 *50:12 *50:18 43.5638 
4 *50:18 *494:RESET_B 20 
*END

*D_NET *51 0.000583229
*CONN
*I *383:A2 I *D sg13g2_a21oi_1
*I *382:Y O *D sg13g2_o21ai_1
*CAP
1 *383:A2 0.000244753
2 *382:Y 0.000244753
3 *383:A2 *382:B1 1.49483e-05
4 *383:A2 *399:B_N 6.38261e-05
5 *383:A2 *513:A 0
6 *383:A2 *65:18 0
7 *383:A2 *167:8 1.49483e-05
8 *383:A2 *201:10 0
*RES
1 *382:Y *383:A2 42.266 
*END

*D_NET *52 0.00171053
*CONN
*I *398:B I *D sg13g2_nor4_1
*I *383:Y O *D sg13g2_a21oi_1
*CAP
1 *398:B 0.000238452
2 *383:Y 0.000164167
3 *52:8 0.000402619
4 *398:B *398:C 4.77425e-05
5 *398:B *399:A 0.000112426
6 *398:B *416:A2 0.000144768
7 *398:B *194:22 0.000176641
8 *398:B *194:37 1.54008e-05
9 *398:B *209:34 0
10 *52:8 *404:B1 0.000335147
11 *52:8 *166:8 0
12 *31:35 *52:8 7.31628e-05
*RES
1 *383:Y *52:8 41.8334 
2 *52:8 *398:B 42.4823 
*END

*D_NET *53 0.00645332
*CONN
*I *466:A1 I *D sg13g2_o21ai_1
*I *441:C I *D sg13g2_nor4_1
*I *420:A2 I *D sg13g2_o21ai_1
*I *385:B I *D sg13g2_nor2_1
*I *384:Y O *D sg13g2_nor2_1
*CAP
1 *466:A1 0.000282355
2 *441:C 5.09163e-05
3 *420:A2 0.000555033
4 *385:B 9.40867e-05
5 *384:Y 0
6 *53:34 0.000671141
7 *53:12 0.00139802
8 *53:6 0.00108677
9 *385:B *54:8 0
10 *385:B *204:62 0
11 *420:A2 *389:B 0
12 *420:A2 *421:A2 0
13 *420:A2 *425:A2 0
14 *420:A2 *434:A 0
15 *420:A2 *54:8 0
16 *420:A2 *58:8 0
17 *420:A2 *87:8 0.000393095
18 *420:A2 *201:45 0
19 *420:A2 *206:71 0
20 *441:C *441:B 4.78195e-05
21 *441:C *441:D 4.78195e-05
22 *466:A1 *466:A2 1.55212e-05
23 *466:A1 *71:17 7.34778e-05
24 *466:A1 *199:81 0.000317069
25 *466:A1 *205:84 0
26 *53:12 *204:52 0.000244766
27 *53:12 *206:88 0
28 *53:12 *210:44 0.000601559
29 *53:34 *71:8 0.000233707
30 *53:34 *71:17 0.000264664
31 *53:34 *106:8 0
32 *53:34 *199:81 7.54955e-05
33 *53:34 *205:84 0
34 *53:34 *205:92 0
*RES
1 *384:Y *53:6 40 
2 *53:6 *53:12 49.4039 
3 *53:12 *385:B 40.8446 
4 *53:12 *420:A2 45.6444 
5 *53:6 *53:34 3.811 
6 *53:34 *441:C 40.5356 
7 *53:34 *466:A1 42.8943 
*END

*D_NET *54 0.00176783
*CONN
*I *389:B I *D sg13g2_nor3_1
*I *417:A1 I *D sg13g2_o21ai_1
*I *385:Y O *D sg13g2_nor2_1
*CAP
1 *389:B 0.000324081
2 *417:A1 0.000294385
3 *385:Y 0.000152961
4 *54:8 0.000771426
5 *389:B *417:A2 0
6 *389:B *199:26 0
7 *389:B *204:18 0
8 *417:A1 *417:A2 0.000144899
9 *417:A1 *418:A1 0
10 *417:A1 *437:B 0
11 *417:A1 *56:72 0
12 *417:A1 *201:45 8.00842e-05
13 *54:8 *56:72 0
14 *54:8 *204:18 0
15 *54:8 *210:23 0
16 *385:B *54:8 0
17 *420:A2 *389:B 0
18 *420:A2 *54:8 0
*RES
1 *385:Y *54:8 41.339 
2 *54:8 *417:A1 42.8325 
3 *54:8 *389:B 43.2033 
*END

*D_NET *55 0.00140421
*CONN
*I *437:A I *D sg13g2_nor2_1
*I *439:C I *D sg13g2_nor3_1
*I *386:Y O *D sg13g2_a21oi_1
*CAP
1 *437:A 0.000255849
2 *439:C 0.000181706
3 *386:Y 0
4 *55:4 0.000437555
5 *437:A *386:A1 0
6 *437:A *402:B1 3.24568e-05
7 *437:A *437:B 0
8 *437:A *438:B 0
9 *437:A *168:12 0
10 *437:A *201:71 0.000144258
11 *437:A *207:55 0.000175913
12 *439:C *386:A1 0
13 *439:C *402:B1 0
14 *439:C *439:B 0.000176476
15 *41:25 *437:A 0
*RES
1 *386:Y *55:4 20 
2 *55:4 *439:C 21.6171 
3 *55:4 *437:A 22.8325 
*END

*D_NET *56 0.0082946
*CONN
*I *418:A2 I *D sg13g2_a21o_1
*I *407:A2 I *D sg13g2_a21oi_1
*I *400:A2 I *D sg13g2_o21ai_1
*I *406:B I *D sg13g2_nor2_1
*I *388:B I *D sg13g2_and2_1
*I *387:Y O *D sg13g2_xnor2_1
*CAP
1 *418:A2 0
2 *407:A2 0
3 *400:A2 2.28111e-05
4 *406:B 5.11742e-05
5 *388:B 4.71968e-05
6 *387:Y 0
7 *56:72 0.000346613
8 *56:59 0.000592075
9 *56:34 0.000969973
10 *56:19 0.000680274
11 *56:6 0.000467459
12 *56:4 0.000492862
13 *388:B *57:8 8.00842e-05
14 *388:B *206:14 1.54282e-05
15 *388:B *206:16 8.0216e-05
16 *400:A2 *400:B1 1.54556e-05
17 *400:A2 *400:A1 4.7803e-05
18 *400:A2 *74:12 0
19 *406:B *75:12 8.00842e-05
20 *56:6 *417:A2 3.23417e-05
21 *56:6 *57:8 0.000208878
22 *56:6 *204:24 0
23 *56:6 *206:14 6.39144e-05
24 *56:6 *210:15 0
25 *56:19 *200:18 0.000128248
26 *56:19 *200:31 0.00111667
27 *56:19 *207:34 0.00108809
28 *56:34 *393:B 0
29 *56:34 *62:8 0.000179231
30 *56:34 *75:12 0.000160397
31 *56:34 *204:18 0
32 *56:34 *211:76 0
33 *56:59 *392:A1 4.75613e-05
34 *56:59 *393:B 0
35 *56:59 *400:A1 3.58804e-05
36 *56:59 *407:A1 0.000111567
37 *56:59 *408:A1 0
38 *56:59 *74:12 0.000143171
39 *56:59 *158:26 0.000143999
40 *56:59 *175:57 0.000232752
41 *56:72 *417:A2 0
42 *56:72 *418:A1 8.1756e-05
43 *56:72 *204:18 0.000179804
44 *56:72 *206:14 0
45 *56:72 *207:55 0.000275921
46 *56:72 *210:23 7.49043e-05
47 *417:A1 *56:72 0
48 *41:109 *56:59 0
49 *54:8 *56:72 0
*RES
1 *387:Y *56:4 20 
2 *56:4 *56:6 1.6171 
3 *56:6 *388:B 20.5356 
4 *56:6 *56:19 45.7886 
5 *56:19 *406:B 20.5356 
6 *56:19 *56:34 43.2651 
7 *56:34 *400:A2 20.3193 
8 *56:34 *56:59 46.0317 
9 *56:59 *407:A2 20 
10 *56:4 *56:72 43.8316 
11 *56:72 *418:A2 20 
*END

*D_NET *57 0.00323371
*CONN
*I *417:A2 I *D sg13g2_o21ai_1
*I *425:A1 I *D sg13g2_o21ai_1
*I *389:C I *D sg13g2_nor3_1
*I *388:X O *D sg13g2_and2_1
*CAP
1 *417:A2 0.000459088
2 *425:A1 9.71656e-05
3 *389:C 0
4 *388:X 0.000240119
5 *57:12 0.000197541
6 *57:8 0.000799582
7 *417:A2 *389:A 1.54008e-05
8 *417:A2 *419:A2 0.000102386
9 *417:A2 *199:26 0
10 *417:A2 *201:45 0.000209807
11 *425:A1 *200:31 0
12 *425:A1 *204:18 0.000341638
13 *57:8 *389:A 0.000176537
14 *57:8 *206:16 0
15 *57:8 *211:48 0
16 *57:12 *200:31 0
17 *57:12 *204:18 0.000128248
18 *388:B *57:8 8.00842e-05
19 *389:B *417:A2 0
20 *417:A1 *417:A2 0.000144899
21 *56:6 *417:A2 3.23417e-05
22 *56:6 *57:8 0.000208878
23 *56:72 *417:A2 0
*RES
1 *388:X *57:8 22.6162 
2 *57:8 *57:12 21.0918 
3 *57:12 *389:C 40 
4 *57:12 *425:A1 41.5862 
5 *57:8 *417:A2 24.4988 
*END

*D_NET *58 0.00203222
*CONN
*I *393:A_N I *D sg13g2_nand2b_1
*I *389:Y O *D sg13g2_nor3_1
*CAP
1 *393:A_N 7.02189e-05
2 *389:Y 0.00037068
3 *58:8 0.000440899
4 *393:A_N *393:B 0
5 *58:8 *75:12 0.000177891
6 *58:8 *87:8 0
7 *58:8 *90:8 0
8 *58:8 *91:10 0
9 *58:8 *204:18 0.000972531
10 *420:A2 *58:8 0
*RES
1 *389:Y *58:8 45.047 
2 *58:8 *393:A_N 40.5356 
*END

*D_NET *59 0.000220533
*CONN
*I *394:B I *D sg13g2_nand2b_1
*I *390:Y O *D sg13g2_o21ai_1
*CAP
1 *394:B 0.000110266
2 *390:Y 0.000110266
3 *394:B *63:12 0
*RES
1 *390:Y *394:B 41.0918 
*END

*D_NET *60 0.000577486
*CONN
*I *408:A2 I *D sg13g2_o21ai_1
*I *392:A2 I *D sg13g2_a21oi_1
*I *391:Y O *D sg13g2_xnor2_1
*CAP
1 *408:A2 4.23775e-05
2 *392:A2 0.000133836
3 *391:Y 8.94284e-05
4 *60:6 0.000265642
5 *392:A2 *392:A1 1.54008e-05
6 *392:A2 *407:A1 0
7 *408:A2 *408:B1 1.54008e-05
8 *408:A2 *408:A1 1.54008e-05
9 *60:6 *407:A1 0
10 *60:6 *407:B1 0
11 *60:6 *408:B1 0
12 *518:A *408:A2 0
13 *518:A *60:6 0
*RES
1 *391:Y *60:6 21.0918 
2 *60:6 *392:A2 21.5862 
3 *60:6 *408:A2 20.5356 
*END

*D_NET *61 0.00111891
*CONN
*I *393:B I *D sg13g2_nand2b_1
*I *392:Y O *D sg13g2_a21oi_1
*CAP
1 *393:B 0.000463696
2 *392:Y 0.000463696
3 *393:B *400:A1 0.000111432
4 *393:B *406:A 0
5 *393:B *423:A1 0
6 *393:B *75:12 0
7 *393:B *207:20 8.00842e-05
8 *393:A_N *393:B 0
9 *56:34 *393:B 0
10 *56:59 *393:B 0
*RES
1 *392:Y *393:B 45.0161 
*END

*D_NET *62 0.00109387
*CONN
*I *416:A1 I *D sg13g2_a22oi_1
*I *393:Y O *D sg13g2_nand2b_1
*CAP
1 *416:A1 6.47685e-05
2 *393:Y 0.000173136
3 *62:8 0.000237904
4 *416:A1 *74:12 0
5 *62:8 *211:76 0.000438832
6 *518:A *416:A1 0
7 *56:34 *62:8 0.000179231
*RES
1 *393:Y *62:8 42.0806 
2 *62:8 *416:A1 40.5356 
*END

*D_NET *63 0.0015492
*CONN
*I *427:C I *D sg13g2_nand3_1
*I *395:B2 I *D sg13g2_a221oi_1
*I *394:Y O *D sg13g2_nand2b_1
*CAP
1 *427:C 0.00011146
2 *395:B2 0.000148796
3 *394:Y 0.000206942
4 *63:14 0.000260255
5 *63:12 0.000206942
6 *395:B2 *380:A2 0
7 *395:B2 *390:B1 0
8 *395:B2 *189:40 0
9 *395:B2 *202:45 0
10 *427:C *390:A2 0
11 *427:C *189:40 0
12 *63:12 *390:B1 2.17985e-05
13 *63:12 *95:8 0.000391839
14 *63:12 *202:45 0
15 *63:12 *205:74 7.33225e-05
16 *63:12 *205:84 0.00012785
17 *394:B *63:12 0
*RES
1 *394:Y *63:12 42.5029 
2 *63:12 *63:14 20 
3 *63:14 *395:B2 21.1845 
4 *63:14 *427:C 21.1021 
*END

*D_NET *64 0.00118789
*CONN
*I *398:C I *D sg13g2_nor4_1
*I *395:Y O *D sg13g2_a221oi_1
*CAP
1 *398:C 0.00036173
2 *395:Y 0.00036173
3 *398:C *398:D 1.54008e-05
4 *398:C *431:A1 0
5 *398:C *170:14 0
6 *398:C *170:20 0
7 *398:C *189:40 0.000401284
8 *398:C *210:86 0
9 *398:B *398:C 4.77425e-05
*RES
1 *395:Y *398:C 43.5638 
*END

*D_NET *65 0.00482844
*CONN
*I *424:A_N I *D sg13g2_nand2b_1
*I *431:A1 I *D sg13g2_o21ai_1
*I *397:B1 I *D sg13g2_a21oi_1
*I *399:A I *D sg13g2_nor2b_1
*I *396:Y O *D sg13g2_nand2b_1
*CAP
1 *424:A_N 5.1396e-05
2 *431:A1 0.000294999
3 *397:B1 3.07197e-05
4 *399:A 7.75161e-05
5 *396:Y 0.00028915
6 *65:33 0.000703492
7 *65:18 0.000820523
8 *65:12 0.00041663
9 *65:10 0.00028915
10 *399:A *209:34 0
11 *431:A1 *430:B 1.54008e-05
12 *431:A1 *431:A2 0
13 *431:A1 *207:118 0
14 *65:10 *425:A2 0
15 *65:10 *168:16 0
16 *65:10 *199:56 0
17 *65:10 *199:67 0
18 *65:10 *201:20 0
19 *65:18 *382:A2 0
20 *65:18 *421:A2 0.000128576
21 *65:18 *425:A2 0
22 *65:18 *166:8 0.000703225
23 *65:18 *194:22 0
24 *65:18 *201:10 0.000389263
25 *65:18 *201:14 0
26 *65:18 *210:78 0
27 *65:33 *376:B1 0
28 *65:33 *416:A2 0
29 *65:33 *166:8 0.000260748
30 *65:33 *194:22 2.17891e-05
31 *65:33 *205:63 4.77153e-05
32 *65:33 *210:107 0.000175721
33 *383:A2 *65:18 0
34 *398:B *399:A 0.000112426
35 *398:C *431:A1 0
*RES
1 *396:Y *65:10 42.3072 
2 *65:10 *65:12 20 
3 *65:12 *65:18 24.9955 
4 *65:18 *399:A 40.7519 
5 *65:18 *65:33 23.4505 
6 *65:33 *397:B1 20.3502 
7 *65:33 *431:A1 22.678 
8 *65:12 *424:A_N 20.5356 
*END

*D_NET *66 0.000286272
*CONN
*I *398:D I *D sg13g2_nor4_1
*I *397:Y O *D sg13g2_a21oi_1
*CAP
1 *398:D 0.000135436
2 *397:Y 0.000135436
3 *398:D *416:A2 0
4 *398:C *398:D 1.54008e-05
*RES
1 *397:Y *398:D 41.5862 
*END

*D_NET *67 0.00178696
*CONN
*I *416:A2 I *D sg13g2_a22oi_1
*I *398:Y O *D sg13g2_nor4_1
*CAP
1 *416:A2 0.00070801
2 *398:Y 0.00070801
3 *416:A2 *376:A2 8.17832e-05
4 *416:A2 *376:A1 0.000144389
5 *416:A2 *400:B1 0
6 *416:A2 *74:33 0
7 *416:A2 *205:63 0
8 *416:A2 *207:110 0
9 *416:A2 *210:107 0
10 *398:B *416:A2 0.000144768
11 *398:D *416:A2 0
12 *65:33 *416:A2 0
*RES
1 *398:Y *416:A2 47.4057 
*END

*D_NET *68 0.00113163
*CONN
*I *400:B1 I *D sg13g2_o21ai_1
*I *399:Y O *D sg13g2_nor2b_1
*CAP
1 *400:B1 0.000406141
2 *399:Y 0.000406141
3 *400:B1 *422:B 0
4 *400:B1 *423:B1 0.000176274
5 *400:B1 *69:10 4.79124e-05
6 *400:B1 *74:33 0
7 *400:B1 *209:34 7.9706e-05
8 *400:A2 *400:B1 1.54556e-05
9 *416:A2 *400:B1 0
*RES
1 *399:Y *400:B1 44.017 
*END

*D_NET *69 0.000548191
*CONN
*I *416:B1 I *D sg13g2_a22oi_1
*I *400:Y O *D sg13g2_o21ai_1
*CAP
1 *416:B1 0
2 *400:Y 0.000138149
3 *69:10 0.000138149
4 *69:10 *74:12 1.54008e-05
5 *69:10 *74:18 0.000176239
6 *69:10 *74:33 3.23417e-05
7 *400:B1 *69:10 4.79124e-05
*RES
1 *400:Y *69:10 41.4111 
2 *69:10 *416:B1 40 
*END

*D_NET *70 0.00759371
*CONN
*I *463:A2 I *D sg13g2_a21oi_1
*I *458:C I *D sg13g2_nor3_1
*I *404:A1 I *D sg13g2_a21oi_1
*I *401:Y O *D sg13g2_nor2b_1
*CAP
1 *463:A2 0
2 *458:C 0
3 *404:A1 0.000171994
4 *401:Y 0
5 *70:44 0.00112163
6 *70:33 0.000157415
7 *70:27 0.00234671
8 *70:12 0.00156515
9 *70:6 0.000325494
10 *404:A1 *188:12 0
11 *404:A1 *192:12 0
12 *70:27 *455:B 0
13 *70:27 *72:12 0
14 *70:27 *72:23 0
15 *70:27 *151:12 7.30101e-05
16 *70:27 *176:8 7.30101e-05
17 *70:27 *192:52 0
18 *70:27 *192:67 0
19 *70:27 *196:46 0
20 *70:27 *196:61 0
21 *70:33 *180:14 0.000117018
22 *70:44 *112:12 0
23 *70:44 *151:18 0
24 *70:44 *180:14 0.000997427
25 *70:44 *196:85 0
26 *5:10 *70:44 7.33225e-05
27 *39:25 *70:33 0
28 *39:46 *70:44 0
29 *50:12 *70:12 0.000571528
*RES
1 *401:Y *70:6 40 
2 *70:6 *70:12 43.7801 
3 *70:12 *404:A1 41.3493 
4 *70:12 *70:27 27.519 
5 *70:27 *70:33 41.6171 
6 *70:33 *458:C 20 
7 *70:27 *70:44 32.7823 
8 *70:44 *463:A2 40 
*END

*D_NET *71 0.00255582
*CONN
*I *466:A2 I *D sg13g2_o21ai_1
*I *441:D I *D sg13g2_nor4_1
*I *440:A2 I *D sg13g2_o21ai_1
*I *402:Y O *D sg13g2_o21ai_1
*CAP
1 *466:A2 0.000291534
2 *441:D 4.78517e-05
3 *440:A2 0
4 *402:Y 7.56052e-05
5 *71:17 0.000443574
6 *71:8 0.000179794
7 *441:D *441:B 0
8 *441:D *442:A_N 8.00842e-05
9 *466:A2 *443:B1 0
10 *466:A2 *155:28 0.000549784
11 *466:A2 *205:84 0
12 *71:8 *199:96 7.30101e-05
13 *71:8 *205:92 0
14 *71:17 *155:28 0
15 *71:17 *199:96 0.000179389
16 *441:C *441:D 4.78195e-05
17 *466:A1 *466:A2 1.55212e-05
18 *466:A1 *71:17 7.34778e-05
19 *53:34 *71:8 0.000233707
20 *53:34 *71:17 0.000264664
*RES
1 *402:Y *71:8 41.0918 
2 *71:8 *440:A2 40 
3 *71:8 *71:17 1.5862 
4 *71:17 *441:D 40.5356 
5 *71:17 *466:A2 43.4454 
*END

*D_NET *72 0.00726613
*CONN
*I *404:A2 I *D sg13g2_a21oi_1
*I *455:B I *D sg13g2_nand2_1
*I *448:A_N I *D sg13g2_nand3b_1
*I *454:B I *D sg13g2_nand2_1
*I *429:B I *D sg13g2_nand2_1
*I *403:Y O *D sg13g2_o21ai_1
*CAP
1 *404:A2 0.000165503
2 *455:B 0.000369445
3 *448:A_N 0
4 *454:B 0
5 *429:B 0.000127228
6 *403:Y 0.0003834
7 *72:50 0.000479173
8 *72:35 9.95335e-05
9 *72:27 0.00125842
10 *72:23 0.00115755
11 *72:12 0.000585128
12 *72:8 0.000898409
13 *404:A2 *413:D 0
14 *404:A2 *519:A 0
15 *404:A2 *211:106 0
16 *429:B *149:14 0
17 *455:B *473:B 0.000111747
18 *455:B *189:117 0.000176431
19 *455:B *196:46 0
20 *72:8 *401:A 0
21 *72:8 *519:A 0
22 *72:8 *148:29 0
23 *72:8 *209:8 0
24 *72:8 *216:14 0
25 *72:12 *192:12 0.000332997
26 *72:12 *192:48 7.30101e-05
27 *72:12 *196:46 0
28 *72:23 *196:46 0
29 *72:27 *152:28 0
30 *72:27 *189:101 0
31 *72:27 *209:18 0
32 *72:35 *189:18 0.000153636
33 *72:50 *409:B1 0.00020871
34 *72:50 *448:C 4.77425e-05
35 *72:50 *123:8 7.49317e-05
36 *72:50 *159:43 0
37 *72:50 *189:18 0
38 *35:49 *72:35 7.5468e-05
39 *41:81 *72:27 0
40 *41:85 *429:B 0.000176679
41 *43:18 *72:27 0.00031099
42 *70:27 *455:B 0
43 *70:27 *72:12 0
44 *70:27 *72:23 0
*RES
1 *403:Y *72:8 23.296 
2 *72:8 *72:12 22.8222 
3 *72:12 *429:B 41.1845 
4 *72:12 *72:23 0.8446 
5 *72:23 *72:27 26.1594 
6 *72:27 *72:35 41.1021 
7 *72:35 *454:B 20 
8 *72:27 *72:50 44.6041 
9 *72:50 *448:A_N 20 
10 *72:23 *455:B 43.0179 
11 *72:8 *404:A2 21.5347 
*END

*D_NET *73 0.00216268
*CONN
*I *433:A2 I *D sg13g2_a221oi_1
*I *415:A1 I *D sg13g2_a21oi_1
*I *404:Y O *D sg13g2_a21oi_1
*CAP
1 *433:A2 0.000167939
2 *415:A1 0.00019143
3 *404:Y 0.00034427
4 *73:8 0.000367761
5 *415:A1 *84:10 4.77425e-05
6 *415:A1 *175:57 0
7 *415:A1 *188:12 0
8 *433:A2 *404:B1 0.000144102
9 *433:A2 *413:D 2.6505e-06
10 *433:A2 *433:B1 0
11 *433:A2 *195:6 0
12 *73:8 *376:A2 0
13 *73:8 *519:A 0.000608608
14 *73:8 *148:42 0.000288172
15 *73:8 *188:12 0
*RES
1 *404:Y *73:8 42.8222 
2 *73:8 *415:A1 41.6171 
3 *404:Y *433:A2 42.181 
*END

*D_NET *74 0.00339039
*CONN
*I *423:A2 I *D sg13g2_o21ai_1
*I *415:A2 I *D sg13g2_a21oi_1
*I *405:Y O *D sg13g2_nand2b_1
*CAP
1 *423:A2 0
2 *415:A2 0
3 *405:Y 6.99736e-05
4 *74:33 0.00035748
5 *74:18 0.000307988
6 *74:12 0.000822675
7 *74:8 0.00022718
8 *74:8 *200:42 7.43655e-05
9 *74:8 *200:57 0.000178198
10 *74:8 *207:20 0.000180882
11 *74:18 *84:10 0.000390835
12 *74:18 *186:8 0
13 *74:18 *211:76 0
14 *74:33 *423:B1 0.000144312
15 *74:33 *423:A1 0.000142999
16 *74:33 *75:12 0
17 *74:33 *158:39 0.000126354
18 *400:B1 *74:33 0
19 *400:A2 *74:12 0
20 *416:A2 *74:33 0
21 *416:A1 *74:12 0
22 *56:59 *74:12 0.000143171
23 *69:10 *74:12 1.54008e-05
24 *69:10 *74:18 0.000176239
25 *69:10 *74:33 3.23417e-05
*RES
1 *405:Y *74:8 41.0918 
2 *74:8 *74:12 21.4008 
3 *74:12 *74:18 43.0694 
4 *74:18 *415:A2 20 
5 *74:12 *74:33 43.4608 
6 *74:33 *423:A2 20 
*END

*D_NET *75 0.0024237
*CONN
*I *423:B1 I *D sg13g2_o21ai_1
*I *406:Y O *D sg13g2_nor2_1
*CAP
1 *423:B1 0.000155304
2 *406:Y 0.000519123
3 *75:12 0.000674427
4 *423:B1 *423:A1 0
5 *75:12 *406:A 0
6 *75:12 *423:A1 3.23417e-05
7 *75:12 *515:A 8.00954e-05
8 *75:12 *91:10 0
9 *75:12 *158:39 0
10 *75:12 *204:18 4.77425e-05
11 *75:12 *211:76 0.000175709
12 *393:B *75:12 0
13 *400:B1 *423:B1 0.000176274
14 *406:B *75:12 8.00842e-05
15 *33:26 *75:12 0
16 *56:34 *75:12 0.000160397
17 *58:8 *75:12 0.000177891
18 *74:33 *423:B1 0.000144312
19 *74:33 *75:12 0
*RES
1 *406:Y *75:12 45.5929 
2 *75:12 *423:B1 41.6171 
*END

*D_NET *76 0.00064488
*CONN
*I *408:B1 I *D sg13g2_o21ai_1
*I *407:Y O *D sg13g2_a21oi_1
*CAP
1 *408:B1 0.000216081
2 *407:Y 0.000216081
3 *408:B1 *407:A1 0.000197318
4 *408:B1 *407:B1 0
5 *408:A2 *408:B1 1.54008e-05
6 *518:A *408:B1 0
7 *60:6 *408:B1 0
*RES
1 *407:Y *408:B1 42.2145 
*END

*D_NET *77 0.00139652
*CONN
*I *414:B I *D sg13g2_nand3_1
*I *408:Y O *D sg13g2_o21ai_1
*CAP
1 *414:B 0
2 *408:Y 0.000186743
3 *77:8 0.000186743
4 *77:8 *391:B 0.000181062
5 *77:8 *407:B1 0
6 *77:8 *148:25 0.000184495
7 *77:8 *200:76 0.000657477
*RES
1 *408:Y *77:8 43.0694 
2 *77:8 *414:B 40 
*END

*D_NET *78 0.00132595
*CONN
*I *447:A1 I *D sg13g2_a21oi_1
*I *413:C I *D sg13g2_nand4_1
*I *409:Y O *D sg13g2_o21ai_1
*CAP
1 *447:A1 0.000327369
2 *413:C 0.000156198
3 *409:Y 0
4 *78:6 0.000483567
5 *413:C *97:29 0
6 *447:A1 *97:29 0
7 *476:A_N *413:C 0.000232373
8 *476:A_N *447:A1 0
9 *31:39 *413:C 0.000126441
*RES
1 *409:Y *78:6 40 
2 *78:6 *413:C 41.5862 
3 *78:6 *447:A1 42.3278 
*END

*D_NET *79 0.00388246
*CONN
*I *411:A I *D sg13g2_inv_1
*I *449:A2 I *D sg13g2_o21ai_1
*I *412:B1 I *D sg13g2_o21ai_1
*I *468:A2 I *D sg13g2_a21oi_1
*I *410:Y O *D sg13g2_nor2_1
*CAP
1 *411:A 0
2 *449:A2 0
3 *412:B1 0.000271365
4 *468:A2 0.000237623
5 *410:Y 0
6 *79:41 0.000128444
7 *79:12 0.000705176
8 *79:6 0.00031383
9 *79:4 0.000246085
10 *412:B1 *360:A 1.54008e-05
11 *412:B1 *412:A1 0
12 *412:B1 *152:18 0
13 *412:B1 *158:8 0
14 *412:B1 *195:19 0
15 *468:A2 *360:A 0
16 *468:A2 *367:A 0
17 *468:A2 *468:B1 0
18 *468:A2 *158:8 0
19 *79:6 *410:A 0.000143374
20 *79:6 *449:B1 1.54008e-05
21 *79:6 *450:C 0
22 *79:6 *198:36 1.54008e-05
23 *79:6 *198:45 0.00014395
24 *79:12 *195:25 0.000287672
25 *79:12 *195:82 0.000178206
26 *79:12 *202:94 0
27 *79:41 *410:A 8.01445e-05
28 *79:41 *469:A 0.000502376
29 *79:41 *125:14 0.000502376
30 *410:B *468:A2 0
31 *410:B *79:6 1.54556e-05
32 *410:B *79:41 6.47823e-05
33 *412:A2 *412:B1 1.54008e-05
*RES
1 *410:Y *79:4 20 
2 *79:4 *79:6 1.4008 
3 *79:6 *79:12 42.0806 
4 *79:12 *468:A2 22.1836 
5 *79:12 *412:B1 22.266 
6 *79:6 *449:A2 20 
7 *79:4 *79:41 42.8634 
8 *79:41 *411:A 20 
*END

*D_NET *80 0.00152531
*CONN
*I *462:A2 I *D sg13g2_a21oi_1
*I *411:Y O *D sg13g2_inv_1
*CAP
1 *462:A2 0.000137465
2 *411:Y 0.000142532
3 *80:8 0.000279997
4 *462:A2 *462:A1 0.00014395
5 *462:A2 *465:A2 0
6 *462:A2 *196:106 0.000143171
7 *80:8 *125:14 0.000444281
8 *80:8 *194:61 0.000233917
9 *80:8 *198:69 0
*RES
1 *411:Y *80:8 42.0806 
2 *80:8 *462:A2 41.4008 
*END

*D_NET *81 0.00104772
*CONN
*I *413:D I *D sg13g2_nand4_1
*I *432:B I *D sg13g2_nor2_1
*I *412:Y O *D sg13g2_o21ai_1
*CAP
1 *413:D 0.000286747
2 *432:B 5.11044e-05
3 *412:Y 0.00017696
4 *81:6 0.000514812
5 *413:D *433:C1 0
6 *413:D *195:19 0
7 *432:B *433:C1 1.54446e-05
8 *81:6 *158:8 0
9 *81:6 *195:19 0
10 *404:A2 *413:D 0
11 *433:A2 *413:D 2.6505e-06
*RES
1 *412:Y *81:6 21.6171 
2 *81:6 *432:B 20.6695 
3 *81:6 *413:D 22.9973 
*END

*D_NET *82 0.00334626
*CONN
*I *414:C I *D sg13g2_nand3_1
*I *413:Y O *D sg13g2_nand4_1
*CAP
1 *414:C 0.000439073
2 *413:Y 0.000280451
3 *82:12 0.000719525
4 *414:C *333:A 0.000268852
5 *414:C *415:B1 0
6 *414:C *426:B1 0
7 *414:C *433:B1 0
8 *414:C *148:42 0.000240957
9 *414:C *188:12 0.000208615
10 *82:12 *413:A 1.54008e-05
11 *82:12 *102:12 0
12 *82:12 *188:12 0.000551826
13 *82:12 *195:6 0
14 *82:12 *211:106 0.000176443
15 *50:8 *82:12 0.000445117
*RES
1 *413:Y *82:12 44.0788 
2 *82:12 *414:C 44.6968 
*END

*D_NET *83 0.000465228
*CONN
*I *415:B1 I *D sg13g2_a21oi_1
*I *414:Y O *D sg13g2_nand3_1
*CAP
1 *415:B1 0.000200974
2 *414:Y 0.000200974
3 *415:B1 *84:10 4.78521e-05
4 *415:B1 *175:57 0
5 *415:B1 *192:22 1.54285e-05
6 *415:B1 *211:80 0
7 *414:C *415:B1 0
*RES
1 *414:Y *415:B1 41.6542 
*END

*D_NET *84 0.00135084
*CONN
*I *416:B2 I *D sg13g2_a22oi_1
*I *415:Y O *D sg13g2_a21oi_1
*CAP
1 *416:B2 0
2 *415:Y 0.000184657
3 *84:10 0.000184657
4 *84:10 *175:57 0
5 *84:10 *186:8 0.000495092
6 *84:10 *211:76 0
7 *84:10 *211:106 0
8 *415:A1 *84:10 4.77425e-05
9 *415:B1 *84:10 4.78521e-05
10 *74:18 *84:10 0.000390835
*RES
1 *415:Y *84:10 42.8634 
2 *84:10 *416:B2 40 
*END

*D_NET *85 0.000443406
*CONN
*I *419:A1 I *D sg13g2_a21oi_1
*I *417:Y O *D sg13g2_o21ai_1
*CAP
1 *419:A1 0.000165375
2 *417:Y 0.000165375
3 *419:A1 *419:A2 0
4 *419:A1 *419:B1 0
5 *419:A1 *162:6 0
6 *419:A1 *201:45 0.000112656
*RES
1 *417:Y *419:A1 41.7458 
*END

*D_NET *86 0.000288599
*CONN
*I *419:A2 I *D sg13g2_a21oi_1
*I *418:X O *D sg13g2_a21o_1
*CAP
1 *419:A2 9.31066e-05
2 *418:X 9.31066e-05
3 *419:A2 *199:26 0
4 *417:A2 *419:A2 0.000102386
5 *419:A1 *419:A2 0
*RES
1 *418:X *419:A2 41.133 
*END

*D_NET *87 0.00118343
*CONN
*I *434:B I *D sg13g2_or4_1
*I *419:Y O *D sg13g2_a21oi_1
*CAP
1 *434:B 3.11807e-05
2 *419:Y 0.000340116
3 *87:8 0.000371297
4 *434:B *434:A 4.77425e-05
5 *434:B *434:D 0
6 *87:8 *90:8 0
7 *87:8 *162:19 0
8 *420:A2 *87:8 0.000393095
9 *58:8 *87:8 0
*RES
1 *419:Y *87:8 43.5638 
2 *87:8 *434:B 40.3193 
*END

*D_NET *88 0.000224569
*CONN
*I *421:B1 I *D sg13g2_o21ai_1
*I *420:Y O *D sg13g2_o21ai_1
*CAP
1 *421:B1 0.000112284
2 *420:Y 0.000112284
3 *421:B1 *425:A2 0
4 *421:B1 *434:D 0
*RES
1 *420:Y *421:B1 41.0918 
*END

*D_NET *89 0.00103851
*CONN
*I *422:B I *D sg13g2_nor2_1
*I *421:Y O *D sg13g2_o21ai_1
*CAP
1 *422:B 0.000146731
2 *421:Y 0.000150929
3 *89:8 0.00029766
4 *422:B *434:A 0
5 *422:B *515:A 4.77425e-05
6 *422:B *209:34 0
7 *89:8 *162:19 0.000395452
8 *89:8 *166:8 0
9 *89:8 *201:18 0
10 *89:8 *201:20 0
11 *400:B1 *422:B 0
*RES
1 *421:Y *89:8 41.8334 
2 *89:8 *422:B 41.0312 
*END

*D_NET *90 0.000714636
*CONN
*I *434:C I *D sg13g2_or4_1
*I *422:Y O *D sg13g2_nor2_1
*CAP
1 *434:C 1.99553e-05
2 *422:Y 0.000151809
3 *90:8 0.000171764
4 *434:C *434:D 3.0644e-05
5 *90:8 *515:A 0
6 *90:8 *91:10 0.000340464
7 *90:8 *162:19 0
8 *90:8 *192:35 0
9 *58:8 *90:8 0
10 *87:8 *90:8 0
*RES
1 *422:Y *90:8 41.8334 
2 *90:8 *434:C 40.2112 
*END

*D_NET *91 0.00230538
*CONN
*I *425:B1 I *D sg13g2_o21ai_1
*I *423:Y O *D sg13g2_o21ai_1
*CAP
1 *425:B1 0
2 *423:Y 0.000342129
3 *91:18 0.000304551
4 *91:10 0.000646681
5 *91:10 *515:A 0
6 *91:10 *158:39 0.000387529
7 *91:18 *434:D 0
8 *91:18 *515:A 0
9 *91:18 *200:31 0
10 *91:18 *204:18 0.000284028
11 *58:8 *91:10 0
12 *75:12 *91:10 0
13 *90:8 *91:10 0.000340464
*RES
1 *423:Y *91:10 44.0994 
2 *91:10 *91:18 43.1724 
3 *91:18 *425:B1 40 
*END

*D_NET *92 0.00218293
*CONN
*I *425:A2 I *D sg13g2_o21ai_1
*I *424:Y O *D sg13g2_nand2b_1
*CAP
1 *425:A2 0.00101132
2 *424:Y 0.00101132
3 *425:A2 *434:D 0
4 *425:A2 *194:37 0
5 *425:A2 *199:26 8.02102e-05
6 *425:A2 *199:33 8.00842e-05
7 *425:A2 *199:56 0
8 *425:A2 *210:72 0
9 *420:A2 *425:A2 0
10 *421:B1 *425:A2 0
11 *65:10 *425:A2 0
12 *65:18 *425:A2 0
*RES
1 *424:Y *425:A2 49.476 
*END

*D_NET *93 0.000680442
*CONN
*I *434:D I *D sg13g2_or4_1
*I *425:Y O *D sg13g2_o21ai_1
*CAP
1 *434:D 0.000324899
2 *425:Y 0.000324899
3 *421:B1 *434:D 0
4 *425:A2 *434:D 0
5 *434:B *434:D 0
6 *434:C *434:D 3.0644e-05
7 *91:18 *434:D 0
*RES
1 *425:Y *434:D 43.3166 
*END

*D_NET *94 0.000507486
*CONN
*I *433:B1 I *D sg13g2_a221oi_1
*I *426:Y O *D sg13g2_o21ai_1
*CAP
1 *433:B1 0.000190072
2 *426:Y 0.000190072
3 *433:B1 *404:B1 0
4 *433:B1 *426:B1 0
5 *433:B1 *433:C1 0
6 *433:B1 *101:10 0.000111914
7 *433:B1 *188:12 0
8 *414:C *433:B1 0
9 *433:A1 *433:B1 1.54282e-05
10 *433:A2 *433:B1 0
*RES
1 *426:Y *433:B1 41.9982 
*END

*D_NET *95 0.0018402
*CONN
*I *428:B I *D sg13g2_nand2b_1
*I *427:Y O *D sg13g2_nand3_1
*CAP
1 *428:B 0.000162653
2 *427:Y 0.000181657
3 *95:8 0.00034431
4 *428:B *390:B1 0
5 *428:B *431:B1 8.03089e-05
6 *428:B *202:57 0
7 *95:8 *125:14 0.000657146
8 *95:8 *205:84 2.2289e-05
9 *63:12 *95:8 0.000391839
*RES
1 *427:Y *95:8 43.0694 
2 *95:8 *428:B 41.4008 
*END

*D_NET *96 0.000712252
*CONN
*I *431:B1 I *D sg13g2_o21ai_1
*I *428:Y O *D sg13g2_nand2b_1
*CAP
1 *431:B1 0.000308271
2 *428:Y 0.000308271
3 *431:B1 *390:B1 0
4 *431:B1 *431:A2 1.54008e-05
5 *431:B1 *170:14 0
6 *431:B1 *202:57 0
7 *431:B1 *207:118 0
8 *428:B *431:B1 8.03089e-05
*RES
1 *428:Y *431:B1 43.0488 
*END

*D_NET *97 0.0073341
*CONN
*I *430:B I *D sg13g2_xnor2_1
*I *443:A2 I *D sg13g2_a21oi_1
*I *447:A2 I *D sg13g2_a21oi_1
*I *429:Y O *D sg13g2_nand2_1
*CAP
1 *430:B 3.31533e-05
2 *443:A2 0.000570847
3 *447:A2 0
4 *429:Y 0.000133137
5 *97:33 0.000790886
6 *97:29 0.00119462
7 *97:14 0.00114242
8 *97:10 0.000267821
9 *430:B *170:14 4.77425e-05
10 *430:B *170:20 1.54008e-05
11 *443:A2 *380:B1 0
12 *443:A2 *443:A1 0.000142687
13 *443:A2 *112:12 0
14 *443:A2 *194:37 0
15 *443:A2 *202:17 0
16 *443:A2 *203:62 0.000497993
17 *97:10 *149:18 0
18 *97:14 *129:16 0
19 *97:14 *149:18 0
20 *97:29 *194:22 0
21 *97:29 *211:114 0.000390023
22 *97:33 *157:27 0.000710299
23 *97:33 *203:62 0.000815048
24 *413:C *97:29 0
25 *431:A1 *430:B 1.54008e-05
26 *447:A1 *97:29 0
27 *476:A_N *97:10 0
28 *476:A_N *97:14 7.92096e-05
29 *23:8 *97:10 0.000232793
30 *31:35 *97:29 0.000128662
31 *31:39 *97:29 0
32 *31:45 *97:29 0
33 *41:85 *97:10 0
34 *43:10 *97:10 0.00012596
35 *43:10 *97:14 0
*RES
1 *429:Y *97:10 41.6274 
2 *97:10 *97:14 21.1845 
3 *97:14 *447:A2 20 
4 *97:14 *97:29 49.6099 
5 *97:29 *97:33 23.811 
6 *97:33 *443:A2 45.6135 
7 *97:33 *430:B 40.3193 
*END

*D_NET *98 0.000293464
*CONN
*I *431:A2 I *D sg13g2_o21ai_1
*I *430:Y O *D sg13g2_xnor2_1
*CAP
1 *431:A2 0.000139032
2 *430:Y 0.000139032
3 *431:A2 *397:A2 0
4 *431:B1 *431:A2 1.54008e-05
5 *431:A1 *431:A2 0
*RES
1 *430:Y *431:A2 41.3802 
*END

*D_NET *99 0.00254201
*CONN
*I *433:B2 I *D sg13g2_a221oi_1
*I *431:Y O *D sg13g2_o21ai_1
*CAP
1 *433:B2 0
2 *431:Y 4.34465e-05
3 *99:16 0.000370039
4 *99:8 0.000413485
5 *99:8 *112:12 0.000235141
6 *99:16 *404:B1 0
7 *99:16 *426:B1 0.000531171
8 *99:16 *207:118 0.000531171
9 *31:35 *99:16 0.00018128
10 *41:53 *99:8 0.000236274
*RES
1 *431:Y *99:8 41.0918 
2 *99:8 *99:16 44.4084 
3 *99:16 *433:B2 40 
*END

*D_NET *100 0.00067689
*CONN
*I *433:C1 I *D sg13g2_a221oi_1
*I *432:Y O *D sg13g2_nor2_1
*CAP
1 *433:C1 0.000274455
2 *432:Y 0.000274455
3 *433:C1 *426:B1 0.000112536
4 *413:D *433:C1 0
5 *432:B *433:C1 1.54446e-05
6 *433:B1 *433:C1 0
*RES
1 *432:Y *433:C1 42.9973 
*END

*D_NET *101 0.0044263
*CONN
*I *435:A2 I *D sg13g2_o21ai_1
*I *433:Y O *D sg13g2_a221oi_1
*CAP
1 *435:A2 0
2 *433:Y 0.000194366
3 *101:18 0.000645505
4 *101:10 0.00083987
5 *101:10 *404:B1 0.00011176
6 *101:10 *102:12 0.00055144
7 *101:10 *209:22 0.000604472
8 *101:18 *102:12 0.000959399
9 *101:18 *102:20 2.14736e-05
10 *101:18 *186:12 0
11 *101:18 *192:48 0.000180722
12 *101:18 *192:123 0.000129661
13 *101:18 *209:14 0
14 *101:18 *209:18 0
15 *433:B1 *101:10 0.000111914
16 *25:8 *101:18 7.57164e-05
17 *43:18 *101:18 0
*RES
1 *433:Y *101:10 43.5741 
2 *101:10 *101:18 47.1585 
3 *101:18 *435:A2 40 
*END

*D_NET *102 0.00798674
*CONN
*I *435:B1 I *D sg13g2_o21ai_1
*I *434:X O *D sg13g2_or4_1
*CAP
1 *435:B1 0
2 *434:X 0
3 *102:20 8.5229e-05
4 *102:12 0.00142676
5 *102:6 0.00134153
6 *102:12 *376:A2 0
7 *102:12 *515:A 0.00075864
8 *102:12 *186:12 0.000631361
9 *102:12 *188:12 0
10 *102:12 *192:35 0.00144337
11 *102:12 *196:119 0
12 *102:12 *205:27 0
13 *102:12 *209:22 0
14 *102:20 *191:20 0
15 *25:8 *102:20 0
16 *50:8 *102:12 0.000767534
17 *82:12 *102:12 0
18 *101:10 *102:12 0.00055144
19 *101:18 *102:12 0.000959399
20 *101:18 *102:20 2.14736e-05
*RES
1 *434:X *102:6 40 
2 *102:6 *102:12 37.8499 
3 *102:12 *102:20 40.6695 
4 *102:20 *435:B1 20 
*END

*D_NET *103 0.000236091
*CONN
*I *437:B I *D sg13g2_nor2_1
*I *436:Y O *D sg13g2_nor3_1
*CAP
1 *437:B 0.000110318
2 *436:Y 0.000110318
3 *437:B *438:B 0
4 *437:B *168:12 1.54556e-05
5 *437:B *201:71 0
6 *437:B *207:55 0
7 *417:A1 *437:B 0
8 *437:A *437:B 0
*RES
1 *436:Y *437:B 41.236 
*END

*D_NET *104 0.000696387
*CONN
*I *438:B I *D sg13g2_xor2_1
*I *437:Y O *D sg13g2_nor2_1
*CAP
1 *438:B 0.000231692
2 *437:Y 0.000231692
3 *438:B *378:A 0
4 *438:B *402:B1 8.87448e-05
5 *438:B *168:12 0
6 *438:B *201:71 0.000144258
7 *437:A *438:B 0
8 *437:B *438:B 0
*RES
1 *437:Y *438:B 42.3484 
*END

*D_NET *105 0.000506214
*CONN
*I *445:A2 I *D sg13g2_o21ai_1
*I *438:X O *D sg13g2_xor2_1
*CAP
1 *445:A2 6.5729e-05
2 *438:X 0.00017965
3 *105:8 0.000245379
4 *445:A2 *445:B1 1.54556e-05
5 *445:A2 *195:46 0
6 *445:A2 *195:48 0
7 *445:A2 *199:67 0
8 *105:8 *130:10 0
9 *105:8 *210:72 0
*RES
1 *438:X *105:8 41.8334 
2 *105:8 *445:A2 40.5356 
*END

*D_NET *106 0.000723104
*CONN
*I *444:A1 I *D sg13g2_o21ai_1
*I *439:Y O *D sg13g2_nor3_1
*CAP
1 *444:A1 0
2 *439:Y 0.000361552
3 *106:8 0.000361552
4 *106:8 *439:A 0
5 *53:34 *106:8 0
*RES
1 *439:Y *106:8 42.8222 
2 *106:8 *444:A1 40 
*END

*D_NET *107 0.000872241
*CONN
*I *444:A2 I *D sg13g2_o21ai_1
*I *440:Y O *D sg13g2_o21ai_1
*CAP
1 *444:A2 5.31063e-05
2 *440:Y 0.000234666
3 *107:10 0.000287773
4 *444:A2 *444:B1 4.79124e-05
5 *444:A2 *195:46 1.54008e-05
6 *444:A2 *199:81 0
7 *107:10 *364:B 0.000153345
8 *107:10 *439:A 0
9 *107:10 *195:46 0
10 *107:10 *206:88 8.00375e-05
*RES
1 *440:Y *107:10 42.3072 
2 *107:10 *444:A2 40.5356 
*END

*D_NET *108 0.000324309
*CONN
*I *442:A_N I *D sg13g2_nand2b_1
*I *441:Y O *D sg13g2_nor4_1
*CAP
1 *442:A_N 0.000122112
2 *441:Y 0.000122112
3 *442:A_N *442:B 0
4 *441:D *442:A_N 8.00842e-05
*RES
1 *441:Y *442:A_N 41.3802 
*END

*D_NET *109 0.000493804
*CONN
*I *443:B1 I *D sg13g2_a21oi_1
*I *442:Y O *D sg13g2_nand2b_1
*CAP
1 *443:B1 0.000246902
2 *442:Y 0.000246902
3 *443:B1 *443:A1 0
4 *443:B1 *466:B1 0
5 *443:B1 *194:37 0
6 *443:B1 *199:81 0
7 *443:B1 *209:45 0
8 *466:A2 *443:B1 0
*RES
1 *442:Y *443:B1 42.4926 
*END

*D_NET *110 0.000888257
*CONN
*I *444:B1 I *D sg13g2_o21ai_1
*I *443:Y O *D sg13g2_a21oi_1
*CAP
1 *444:B1 2.68912e-05
2 *443:Y 0.000385554
3 *110:8 0.000412445
4 *444:B1 *445:B1 1.54556e-05
5 *444:B1 *199:81 0
6 *110:8 *439:A 0
7 *110:8 *205:84 0
8 *444:A2 *444:B1 4.79124e-05
*RES
1 *443:Y *110:8 43.5638 
2 *110:8 *444:B1 40.3193 
*END

*D_NET *111 0.000562242
*CONN
*I *445:B1 I *D sg13g2_o21ai_1
*I *444:Y O *D sg13g2_o21ai_1
*CAP
1 *445:B1 0.000265666
2 *444:Y 0.000265666
3 *445:B1 *195:46 0
4 *445:B1 *199:67 0
5 *445:B1 *199:81 0
6 *444:B1 *445:B1 1.54556e-05
7 *445:A2 *445:B1 1.54556e-05
*RES
1 *444:Y *445:B1 42.7192 
*END

*D_NET *112 0.00815648
*CONN
*I *453:A2 I *D sg13g2_o21ai_1
*I *445:Y O *D sg13g2_o21ai_1
*CAP
1 *453:A2 0
2 *445:Y 0
3 *112:20 0.000123031
4 *112:12 0.00245176
5 *112:6 0.00232872
6 *112:12 *446:B 0.000315516
7 *112:12 *113:18 0
8 *112:12 *123:8 0
9 *112:12 *130:38 0
10 *112:12 *152:28 0
11 *112:12 *157:27 0.00124083
12 *112:12 *157:36 0.000530423
13 *112:12 *159:8 0.00018054
14 *112:12 *189:8 0.000177583
15 *112:12 *189:18 0.000442743
16 *112:12 *189:101 0
17 *112:12 *196:85 0
18 *112:20 *453:B1 3.96571e-05
19 *112:20 *453:A1 1.54556e-05
20 *112:20 *174:64 0
21 *112:20 *178:12 7.50805e-05
22 *443:A2 *112:12 0
23 *35:41 *112:20 0
24 *39:46 *112:12 0
25 *41:53 *112:12 0
26 *41:64 *112:12 0
27 *41:81 *112:12 0
28 *70:44 *112:12 0
29 *99:8 *112:12 0.000235141
*RES
1 *445:Y *112:6 40 
2 *112:6 *112:12 43.1029 
3 *112:12 *112:20 41.0789 
4 *112:20 *453:A2 20 
*END

*D_NET *113 0.00618766
*CONN
*I *447:B1 I *D sg13g2_a21oi_1
*I *474:B I *D sg13g2_nand2_1
*I *446:Y O *D sg13g2_nand2b_1
*CAP
1 *447:B1 0
2 *474:B 0.00028303
3 *446:Y 9.98928e-05
4 *113:18 0.00163966
5 *113:12 0.00135663
6 *113:8 9.98928e-05
7 *474:B *474:A 0
8 *474:B *216:10 4.7154e-05
9 *113:8 *446:B 1.54556e-05
10 *113:8 *118:12 0
11 *113:8 *129:16 0
12 *113:8 *189:117 0
13 *113:18 *152:28 0.000342142
14 *113:18 *174:35 0.000393372
15 *113:18 *178:16 0.00191042
16 *113:18 *192:83 0
17 *21:14 *113:18 0
18 *39:46 *113:18 0
19 *42:14 *474:B 0
20 *43:18 *113:18 0
21 *50:18 *113:18 0
22 *112:12 *113:18 0
*RES
1 *446:Y *113:8 21.133 
2 *113:8 *113:12 40 
3 *113:12 *113:18 35.1307 
4 *113:18 *474:B 42.4823 
5 *113:8 *447:B1 20 
*END

*D_NET *114 0.000809407
*CONN
*I *452:A_N I *D sg13g2_nand2b_1
*I *447:Y O *D sg13g2_a21oi_1
*CAP
1 *452:A_N 0
2 *447:Y 0.00023668
3 *114:12 0.00023668
4 *114:12 *446:B 0
5 *114:12 *470:A 0
6 *114:12 *118:12 0.000169826
7 *114:12 *129:16 0.000144086
8 *114:12 *152:28 2.21356e-05
9 *114:12 *174:64 0
*RES
1 *447:Y *114:12 42.5647 
2 *114:12 *452:A_N 40 
*END

*D_NET *115 0.000339274
*CONN
*I *450:B I *D sg13g2_nand3_1
*I *448:Y O *D sg13g2_nand3b_1
*CAP
1 *450:B 0.000129499
2 *448:Y 0.000129499
3 *450:B *450:C 0
4 *450:B *159:43 8.02763e-05
*RES
1 *448:Y *450:B 41.3802 
*END

*D_NET *116 0.000536624
*CONN
*I *450:C I *D sg13g2_nand3_1
*I *449:Y O *D sg13g2_o21ai_1
*CAP
1 *450:C 0.000260611
2 *449:Y 0.000260611
3 *450:C *448:B 1.54008e-05
4 *450:B *450:C 0
5 *79:6 *450:C 0
*RES
1 *449:Y *450:C 42.9664 
*END

*D_NET *117 0.00133892
*CONN
*I *451:B1 I *D sg13g2_a21oi_1
*I *450:Y O *D sg13g2_nand3_1
*CAP
1 *451:B1 0.00034106
2 *450:Y 0.00034106
3 *451:B1 *446:B 0.000256707
4 *451:B1 *450:A 0
5 *451:B1 *451:A2 0
6 *451:B1 *465:A2 0.00011184
7 *451:B1 *127:29 0
8 *451:B1 *152:18 4.78524e-05
9 *451:B1 *152:28 0.000240405
10 *451:B1 *159:43 0
*RES
1 *450:Y *451:B1 43.4048 
*END

*D_NET *118 0.00066006
*CONN
*I *452:B I *D sg13g2_nand2b_1
*I *451:Y O *D sg13g2_a21oi_1
*CAP
1 *452:B 3.38093e-05
2 *451:Y 8.60054e-05
3 *118:12 0.000119815
4 *452:B *127:14 4.77425e-05
5 *118:12 *446:B 2.80562e-05
6 *118:12 *470:A 0
7 *118:12 *174:64 0.000174805
8 *113:8 *118:12 0
9 *114:12 *118:12 0.000169826
*RES
1 *451:Y *118:12 41.2669 
2 *118:12 *452:B 40.3193 
*END

*D_NET *119 0.00158863
*CONN
*I *453:B1 I *D sg13g2_o21ai_1
*I *452:Y O *D sg13g2_nand2b_1
*CAP
1 *453:B1 2.76773e-05
2 *452:Y 0.000365347
3 *119:12 0.000393025
4 *119:12 *446:B 0
5 *119:12 *453:A1 0
6 *119:12 *127:14 0.000209807
7 *119:12 *189:105 0.000112826
8 *119:12 *189:117 1.54556e-05
9 *119:12 *193:18 2.14736e-05
10 *119:12 *194:22 0
11 *35:41 *453:B1 0
12 *35:41 *119:12 0.000403362
13 *112:20 *453:B1 3.96571e-05
*RES
1 *452:Y *119:12 43.8625 
2 *119:12 *453:B1 40.2652 
*END

*D_NET *120 0.00154554
*CONN
*I *465:A2 I *D sg13g2_a21oi_1
*I *454:Y O *D sg13g2_nand2_1
*CAP
1 *465:A2 0.000289159
2 *454:Y 9.65855e-05
3 *120:10 0.000385745
4 *465:A2 *127:29 0
5 *465:A2 *159:43 0
6 *465:A2 *193:24 0
7 *465:A2 *193:39 0.000272878
8 *465:A2 *196:106 0.000208057
9 *120:10 *409:B1 0
10 *120:10 *123:8 0.00018128
11 *451:B1 *465:A2 0.00011184
12 *462:A2 *465:A2 0
*RES
1 *454:Y *120:10 41.1639 
2 *120:10 *465:A2 43.1312 
*END

*D_NET *121 0.00295651
*CONN
*I *456:B I *D sg13g2_nor2_1
*I *473:B I *D sg13g2_nand2_1
*I *455:Y O *D sg13g2_nand2_1
*CAP
1 *456:B 0
2 *473:B 0.000204117
3 *455:Y 0
4 *121:23 0.000784239
5 *121:4 0.000988356
6 *473:B *473:A 0
7 *473:B *189:117 0
8 *121:23 *455:A 0.000112404
9 *121:23 *153:8 0.000273545
10 *121:23 *174:14 0
11 *121:23 *174:18 0
12 *121:23 *189:117 0
13 *121:23 *189:131 0
14 *455:B *473:B 0.000111747
15 *7:8 *121:23 0
16 *35:33 *121:23 0.00040202
17 *35:41 *473:B 0
18 *35:41 *121:23 8.00842e-05
*RES
1 *455:Y *121:4 20 
2 *121:4 *473:B 21.8334 
3 *121:4 *121:23 47.7044 
4 *121:23 *456:B 20 
*END

*D_NET *122 0.000985752
*CONN
*I *466:B1 I *D sg13g2_o21ai_1
*I *457:Y O *D sg13g2_nor2_1
*CAP
1 *466:B1 0.000364588
2 *457:Y 0.000364588
3 *466:B1 *379:B 0
4 *466:B1 *442:B 0.000112519
5 *466:B1 *199:81 0.000144058
6 *443:B1 *466:B1 0
*RES
1 *457:Y *466:B1 44.4908 
*END

*D_NET *123 0.00302965
*CONN
*I *464:A2 I *D sg13g2_a21oi_1
*I *460:C I *D sg13g2_nor3_1
*I *459:Y O *D sg13g2_nor2_1
*CAP
1 *464:A2 0.000369743
2 *460:C 0.00033376
3 *459:Y 0.000419937
4 *123:10 0.000703503
5 *123:8 0.000419937
6 *460:C *501:A 0
7 *460:C *194:61 0
8 *460:C *196:91 0
9 *464:A2 *463:A1 0
10 *464:A2 *501:A 0
11 *464:A2 *538:A 0.000112826
12 *464:A2 *194:61 0
13 *464:A2 *196:91 0
14 *464:A2 *196:106 0
15 *464:A2 *198:84 0.000138044
16 *464:A2 *213:10 0.000202282
17 *123:8 *127:29 0
18 *123:8 *152:18 0
19 *123:8 *159:43 0
20 *123:8 *182:8 0
21 *123:8 *189:18 7.34081e-05
22 *123:8 *193:28 0
23 *72:50 *123:8 7.49317e-05
24 *112:12 *123:8 0
25 *120:10 *123:8 0.00018128
*RES
1 *459:Y *123:8 44.0942 
2 *123:8 *123:10 20 
3 *123:10 *460:C 22.8325 
4 *123:10 *464:A2 23.7621 
*END

*D_NET *124 0.00241357
*CONN
*I *463:B1 I *D sg13g2_a21oi_1
*I *467:A I *D sg13g2_nand2_1
*I *464:B1 I *D sg13g2_a21oi_1
*I *462:B1 I *D sg13g2_a21oi_1
*I *461:X O *D sg13g2_or2_1
*CAP
1 *463:B1 0.000186528
2 *467:A 5.66962e-05
3 *464:B1 0
4 *462:B1 0.000324422
5 *461:X 0
6 *124:23 0.000128144
7 *124:6 0.000462667
8 *124:4 0.000253325
9 *462:B1 *462:A1 0
10 *462:B1 *531:A 0
11 *462:B1 *193:24 1.54008e-05
12 *462:B1 *196:106 0
13 *462:B1 *213:10 0
14 *463:B1 *463:A1 0.000135712
15 *463:B1 *531:A 0
16 *463:B1 *185:12 0
17 *467:A *125:14 0.000106064
18 *467:A *182:8 0
19 *467:A *213:10 0.00018128
20 *124:6 *463:A1 0
21 *124:6 *185:12 0
22 *124:6 *213:10 4.78195e-05
23 *124:23 *125:14 0.00028427
24 *124:23 *213:10 0.000231238
25 DATA[8] *467:A 0
*RES
1 *461:X *124:4 20 
2 *124:4 *124:6 0.7519 
3 *124:6 *462:B1 22.884 
4 *124:6 *124:23 21.339 
5 *124:23 *464:B1 40 
6 *124:23 *467:A 41.0918 
7 *124:4 *463:B1 21.9673 
*END

*D_NET *125 0.00696866
*CONN
*I *467:B I *D sg13g2_nand2_1
*I *466:Y O *D sg13g2_o21ai_1
*CAP
1 *467:B 0
2 *466:Y 0
3 *125:14 0.00153005
4 *125:6 0.00153005
5 *125:14 *367:A 0
6 *125:14 *394:A_N 0.000181279
7 *125:14 *427:A 0
8 *125:14 *468:A1 0.000424342
9 *125:14 *469:A 0
10 *125:14 *537:A 4.78028e-05
11 *125:14 *155:28 0
12 *125:14 *155:39 0
13 *125:14 *169:8 0.000287846
14 *125:14 *182:8 0
15 *125:14 *194:61 0
16 *125:14 *195:105 0.000499241
17 *125:14 *198:47 0
18 *125:14 *198:69 0
19 *125:14 *205:84 0
20 *125:14 *207:135 0.00039377
21 *125:14 *208:12 0
22 *467:A *125:14 0.000106064
23 *3:10 *125:14 8.01445e-05
24 *79:41 *125:14 0.000502376
25 *80:8 *125:14 0.000444281
26 *95:8 *125:14 0.000657146
27 *124:23 *125:14 0.00028427
*RES
1 *466:Y *125:6 40 
2 *125:6 *125:14 38.7563 
3 *125:14 *467:B 20 
*END

*D_NET *126 0.000374315
*CONN
*I *469:B I *D sg13g2_nor2_1
*I *468:Y O *D sg13g2_a21oi_1
*CAP
1 *469:B 0.000187157
2 *468:Y 0.000187157
3 *469:B *468:B1 0
4 *469:B *469:A 0
5 *469:B *195:36 0
*RES
1 *468:Y *469:B 41.9673 
*END

*D_NET *127 0.00354523
*CONN
*I *471:A2 I *D sg13g2_a21oi_1
*I *475:A2 I *D sg13g2_o21ai_1
*I *470:Y O *D sg13g2_nor2b_1
*CAP
1 *471:A2 0
2 *475:A2 0
3 *470:Y 0
4 *127:29 0.000365772
5 *127:14 0.000618143
6 *127:4 0.000983914
7 *127:14 *446:B 0
8 *127:14 *470:A 0.000111027
9 *127:14 *475:B1 4.77699e-05
10 *127:14 *174:64 0
11 *127:14 *194:10 0.000110983
12 *127:14 *194:22 0
13 *127:14 *196:70 1.54282e-05
14 *127:14 *196:85 0.000387477
15 *127:29 *470:A 6.46834e-05
16 *127:29 *182:8 0.000128247
17 *127:29 *193:24 0.000112558
18 *127:29 *193:28 0
19 *127:29 *196:91 0.000112558
20 *451:B1 *127:29 0
21 *452:B *127:14 4.77425e-05
22 *465:A2 *127:29 0
23 *13:8 *127:14 0
24 *35:41 *127:14 0
25 *39:46 *127:14 0.00022912
26 *119:12 *127:14 0.000209807
27 *123:8 *127:29 0
*RES
1 *470:Y *127:4 20 
2 *127:4 *127:14 45.9946 
3 *127:14 *475:A2 20 
4 *127:4 *127:29 43.8934 
5 *127:29 *471:A2 20 
*END

*D_NET *128 0.00116937
*CONN
*I *477:C I *D sg13g2_nand3_1
*I *476:Y O *D sg13g2_nand2b_1
*CAP
1 *477:C 7.29312e-05
2 *476:Y 0.000227796
3 *128:10 0.000300727
4 *128:10 *129:16 1.54008e-05
5 *128:10 *178:12 0
6 *23:8 *128:10 0.000445484
7 *35:41 *477:C 0.000107036
*RES
1 *476:Y *128:10 42.3999 
2 *128:10 *477:C 40.7159 
*END

*D_NET *129 0.00494832
*CONN
*I *362:B I *D sg13g2_nand4_1
*I *435:A1 I *D sg13g2_o21ai_1
*I *369:A I *D sg13g2_nor2_1
*I *330:Y O *D sg13g2_inv_1
*CAP
1 *362:B 0
2 *435:A1 0
3 *369:A 0.000284182
4 *330:Y 0.000255503
5 *129:39 0.000347227
6 *129:22 0.00107785
7 *129:16 0.00107575
8 *129:8 0.000884819
9 *369:A *369:B 0
10 *369:A *154:29 0
11 *129:8 *174:64 0.000390552
12 *129:8 *194:22 0
13 *129:8 *198:25 0
14 *129:16 *362:C 4.77425e-05
15 *129:16 *362:A 9.7025e-05
16 *129:16 *381:A 0
17 *129:16 *446:B 0
18 *129:16 *152:34 8.01118e-05
19 *129:16 *189:117 0
20 *129:22 *362:C 1.54008e-05
21 *129:22 *362:A 4.77425e-05
22 *129:22 *362:D 0
23 *129:22 *369:B 0
24 *129:22 *499:A 0
25 *129:22 *153:8 0
26 *129:22 *154:8 0
27 *129:22 *154:29 0
28 *129:39 *369:B 0
29 *129:39 *172:48 0
30 *476:A_N *129:16 0.00011176
31 *25:8 *129:39 0
32 *41:85 *129:16 0
33 *42:14 *369:A 0
34 *43:18 *129:39 7.31655e-05
35 *97:14 *129:16 0
36 *113:8 *129:16 0
37 *114:12 *129:16 0.000144086
38 *128:10 *129:16 1.54008e-05
*RES
1 *330:Y *129:8 42.575 
2 *129:8 *129:16 26.18 
3 *129:16 *129:22 4.017 
4 *129:22 *369:A 22.3999 
5 *129:22 *129:39 42.8943 
6 *129:39 *435:A1 20 
7 *129:16 *362:B 20 
*END

*D_NET *130 0.00823578
*CONN
*I *412:A1 I *D sg13g2_o21ai_1
*I *395:A2 I *D sg13g2_a221oi_1
*I *378:A I *D sg13g2_nand2_1
*I *386:B1 I *D sg13g2_a21oi_1
*I *331:Y O *D sg13g2_inv_1
*CAP
1 *412:A1 0.000379291
2 *395:A2 0.000104996
3 *378:A 0.000192578
4 *386:B1 0.000207727
5 *331:Y 0
6 *130:38 0.00110601
7 *130:10 0.000566069
8 *130:4 0.000787482
9 *378:A *402:B1 0.000274321
10 *378:A *168:12 0.000177164
11 *378:A *204:77 0
12 *386:B1 *147:10 0
13 *386:B1 *204:77 0
14 *386:B1 *207:55 0
15 *395:A2 *390:B1 0
16 *395:A2 *202:34 0
17 *412:A1 *443:A1 0.000550856
18 *412:A1 *152:48 0.000181192
19 *412:A1 *158:8 0
20 *412:A1 *189:28 0.00060711
21 *412:A1 *189:32 0
22 *130:10 *439:A 0
23 *130:10 *195:46 4.78195e-05
24 *130:10 *201:71 0
25 *130:10 *204:77 0
26 *130:10 *206:88 4.78195e-05
27 *130:38 *439:A 0.00128721
28 *130:38 *443:A1 0.000898961
29 *130:38 *195:46 0.0001448
30 *130:38 *202:34 0.0005295
31 *130:38 *206:88 0.000129476
32 *412:B1 *412:A1 0
33 *412:A2 *412:A1 1.54008e-05
34 *438:B *378:A 0
35 *105:8 *130:10 0
36 *112:12 *130:38 0
*RES
1 *331:Y *130:4 20 
2 *130:4 *130:10 21.9055 
3 *130:10 *386:B1 41.8746 
4 *130:10 *378:A 42.1836 
5 *130:4 *130:38 29.8803 
6 *130:38 *395:A2 40.7133 
7 *130:38 *412:A1 45.0238 
*END

*D_NET *131 0.00203549
*CONN
*I *340:B1 I *D sg13g2_a21oi_1
*I *335:X O *D sg13g2_and2_1
*CAP
1 *340:B1 0.00035692
2 *335:X 0.000376721
3 *131:10 0.000733641
4 *340:B1 *340:A1 8.00842e-05
5 *340:B1 *340:A2 0.000210097
6 *340:B1 *343:A 0
7 *340:B1 *344:A1 0
8 *340:B1 *478:B 0
9 *340:B1 *136:6 0
10 *340:B1 *138:16 8.03692e-05
11 *131:10 *521:A 8.58658e-05
12 *131:10 *139:10 0
13 *131:10 *190:14 0
14 *131:10 *190:16 0
15 *131:10 *211:37 0.000111787
16 *32:12 *340:B1 0
17 *32:12 *131:10 0
*RES
1 *335:X *131:10 43.5741 
2 *131:10 *340:B1 43.7183 
*END

*D_NET *132 0.000745457
*CONN
*I *338:B1 I *D sg13g2_o21ai_1
*I *336:Y O *D sg13g2_nand2_1
*CAP
1 *338:B1 0
2 *336:Y 0.000372728
3 *132:8 0.000372728
4 *132:8 *203:16 0
5 *132:8 *206:39 0
6 *523:A *132:8 0
*RES
1 *336:Y *132:8 43.0694 
2 *132:8 *338:B1 40 
*END

*D_NET *133 0.000957801
*CONN
*I *479:B I *D sg13g2_xnor2_1
*I *338:A2 I *D sg13g2_o21ai_1
*I *337:Y O *D sg13g2_xnor2_1
*CAP
1 *479:B 9.61427e-05
2 *338:A2 0.00014774
3 *337:Y 0.000131891
4 *133:6 0.000375774
5 *338:A2 *479:A 0
6 *338:A2 *200:14 1.54008e-05
7 *479:B *479:A 4.78195e-05
8 *479:B *210:6 0
9 *133:6 *337:B 0
10 *133:6 *134:8 0.000143033
11 *41:16 *338:A2 0
*RES
1 *337:Y *133:6 21.4008 
2 *133:6 *338:A2 22.0188 
3 *133:6 *479:B 21.4832 
*END

*D_NET *134 0.00351209
*CONN
*I *478:A I *D sg13g2_xor2_1
*I *340:A1 I *D sg13g2_a21oi_1
*I *338:Y O *D sg13g2_o21ai_1
*CAP
1 *478:A 0.000117382
2 *340:A1 4.37077e-05
3 *338:Y 0.000309957
4 *134:18 0.000587318
5 *134:8 0.00097095
6 *340:A1 *340:A2 8.00842e-05
7 *478:A *339:B 0.000235245
8 *478:A *200:108 0
9 *134:8 *511:A 0.000207144
10 *134:8 *200:14 0
11 *134:8 *200:108 7.74704e-05
12 *134:18 *339:A 7.82785e-05
13 *134:18 *341:A 0
14 *134:18 *137:8 0
15 *134:18 *200:108 0.000306794
16 *134:18 *200:116 0.000274643
17 *340:B1 *340:A1 8.00842e-05
18 *133:6 *134:8 0.000143033
*RES
1 *338:Y *134:8 43.3475 
2 *134:8 *134:18 45.4693 
3 *134:18 *340:A1 40.5356 
4 *134:8 *478:A 41.6583 
*END

*D_NET *135 0.00189213
*CONN
*I *478:B I *D sg13g2_xor2_1
*I *340:A2 I *D sg13g2_a21oi_1
*I *339:X O *D sg13g2_xor2_1
*CAP
1 *478:B 0.000183197
2 *340:A2 0.000343234
3 *339:X 0
4 *135:4 0.000526431
5 *340:A2 *341:A 0.000339393
6 *340:A2 *190:31 0.000209697
7 *478:B *343:B 0
8 *478:B *138:16 0
9 *478:B *200:108 0
10 *340:A1 *340:A2 8.00842e-05
11 *340:B1 *340:A2 0.000210097
12 *340:B1 *478:B 0
13 *32:12 *340:A2 0
*RES
1 *339:X *135:4 20 
2 *135:4 *340:A2 23.914 
3 *135:4 *478:B 22.1218 
*END

*D_NET *136 0.000676198
*CONN
*I *343:A I *D sg13g2_xor2_1
*I *344:A1 I *D sg13g2_o21ai_1
*I *340:Y O *D sg13g2_a21oi_1
*CAP
1 *343:A 0.000185125
2 *344:A1 0.000120467
3 *340:Y 2.47787e-05
4 *136:6 0.000330371
5 *343:A *344:A2 0
6 *343:A *138:16 1.54556e-05
7 *344:A1 *344:A2 0
8 *344:A1 *138:16 0
9 *136:6 *138:16 0
10 *340:B1 *343:A 0
11 *340:B1 *344:A1 0
12 *340:B1 *136:6 0
*RES
1 *340:Y *136:6 20.3502 
2 *136:6 *344:A1 21.1021 
3 *136:6 *343:A 21.6171 
*END

*D_NET *137 0.000524797
*CONN
*I *344:B1 I *D sg13g2_o21ai_1
*I *341:Y O *D sg13g2_nand2_1
*CAP
1 *344:B1 0
2 *341:Y 0.000262399
3 *137:8 0.000262399
4 *134:18 *137:8 0
*RES
1 *341:Y *137:8 42.575 
2 *137:8 *344:B1 40 
*END

*D_NET *138 0.00111239
*CONN
*I *343:B I *D sg13g2_xor2_1
*I *344:A2 I *D sg13g2_o21ai_1
*I *342:Y O *D sg13g2_xnor2_1
*CAP
1 *343:B 2.79713e-05
2 *344:A2 0.00027406
3 *342:Y 0.00020625
4 *138:16 0.000508282
5 *344:A2 *139:8 0
6 *340:B1 *138:16 8.03692e-05
7 *343:A *344:A2 0
8 *343:A *138:16 1.54556e-05
9 *344:A1 *344:A2 0
10 *344:A1 *138:16 0
11 *478:B *343:B 0
12 *478:B *138:16 0
13 *32:12 *138:16 0
14 *34:10 *344:A2 0
15 *34:10 *138:16 0
16 *136:6 *138:16 0
*RES
1 *342:Y *138:16 22.6883 
2 *138:16 *344:A2 22.266 
3 *138:16 *343:B 20.3502 
*END

*D_NET *139 0.00358577
*CONN
*I *348:A1 I *D sg13g2_a21oi_1
*I *347:A I *D sg13g2_xor2_1
*I *344:Y O *D sg13g2_o21ai_1
*CAP
1 *348:A1 7.77003e-05
2 *347:A 2.60565e-05
3 *344:Y 0.000206048
4 *139:10 0.00106023
5 *139:8 0.00116252
6 *347:A *525:A 4.77425e-05
7 *348:A1 *141:27 0.00012816
8 *139:10 *141:27 0.000128247
9 *139:10 *173:24 0
10 *139:10 *211:16 0
11 *344:A2 *139:8 0
12 *492:RESET_B *347:A 4.77425e-05
13 *27:20 *348:A1 0.000159598
14 *27:20 *139:10 0.00023464
15 *32:12 *139:10 0
16 *33:8 *139:10 0
17 *34:10 *139:8 0.000307084
18 *34:10 *139:10 0
19 *131:10 *139:10 0
*RES
1 *344:Y *139:8 42.0497 
2 *139:8 *139:10 9.7438 
3 *139:10 *347:A 40.3193 
4 *139:10 *348:A1 41.1639 
*END

*D_NET *140 0.00111133
*CONN
*I *348:B1 I *D sg13g2_a21oi_1
*I *345:X O *D sg13g2_and2_1
*CAP
1 *348:B1 0.000418419
2 *345:X 0.000418419
3 *348:B1 *352:A1 0
4 *348:B1 *525:A 0
5 *348:B1 *196:6 6.46579e-05
6 *348:B1 *196:16 0.000209838
7 *348:B1 *199:12 0
8 *492:RESET_B *348:B1 0
9 *518:A *348:B1 0
*RES
1 *345:X *348:B1 44.6865 
*END

*D_NET *141 0.00205192
*CONN
*I *348:A2 I *D sg13g2_a21oi_1
*I *347:B I *D sg13g2_xor2_1
*I *346:X O *D sg13g2_xor2_1
*CAP
1 *348:A2 0
2 *347:B 3.03095e-05
3 *346:X 0.000524699
4 *141:27 7.66654e-05
5 *141:14 0.000631674
6 *347:B *485:A 0
7 *141:14 *346:B 4.77425e-05
8 *141:14 *498:A 0
9 *141:14 *525:A 0.000307035
10 *141:14 *172:15 0
11 *141:14 *190:10 0
12 *348:A1 *141:27 0.00012816
13 *492:D *347:B 0
14 *492:D *141:14 0.000177388
15 *31:12 *141:14 0
16 *139:10 *141:27 0.000128247
*RES
1 *346:X *141:14 25.6135 
2 *141:14 *347:B 20.3502 
3 *141:14 *141:27 41.0918 
4 *141:27 *348:A2 20 
*END

*D_NET *142 0.0020082
*CONN
*I *351:A I *D sg13g2_xor2_1
*I *352:A1 I *D sg13g2_o21ai_1
*I *348:Y O *D sg13g2_a21oi_1
*CAP
1 *351:A 0.000231879
2 *352:A1 0.000455699
3 *348:Y 6.68694e-05
4 *142:6 0.000754448
5 *351:A *178:24 0
6 *351:A *196:24 0
7 *352:A1 *350:A 0
8 *352:A1 *525:A 0
9 *352:A1 *144:21 0.000499308
10 *352:A1 *196:16 0
11 *352:A1 *196:24 0
12 *348:B1 *352:A1 0
13 *492:RESET_B *351:A 0
14 *10:8 *351:A 0
*RES
1 *348:Y *142:6 20.8446 
2 *142:6 *352:A1 24.429 
3 *142:6 *351:A 22.1836 
*END

*D_NET *143 0.00204175
*CONN
*I *352:B1 I *D sg13g2_o21ai_1
*I *349:Y O *D sg13g2_nand2_1
*CAP
1 *352:B1 0.000731161
2 *349:Y 0.000731161
3 *352:B1 *349:A 0.000306739
4 *352:B1 *535:A 0
5 *352:B1 *144:21 0.000272685
6 *352:B1 *187:33 0
7 *352:B1 *196:16 0
8 *493:RESET_B *352:B1 0
*RES
1 *349:Y *352:B1 47.6941 
*END

*D_NET *144 0.0026482
*CONN
*I *352:A2 I *D sg13g2_o21ai_1
*I *351:B I *D sg13g2_xor2_1
*I *350:Y O *D sg13g2_xnor2_1
*CAP
1 *352:A2 0
2 *351:B 0.000169186
3 *350:Y 0
4 *144:21 0.000479278
5 *144:4 0.000648464
6 *351:B *196:24 0.000274189
7 *144:21 *349:A 0
8 *144:21 *350:A 0.00012816
9 *144:21 *196:16 0.000112119
10 *144:21 *196:24 6.48097e-05
11 *352:B1 *144:21 0.000272685
12 *352:A1 *144:21 0.000499308
13 *493:D *351:B 0
14 *493:D *144:21 0
*RES
1 *350:Y *144:4 20 
2 *144:4 *351:B 21.8334 
3 *144:4 *144:21 45.3766 
4 *144:21 *352:A2 20 
*END

*D_NET *145 0.00168911
*CONN
*I *354:A I *D sg13g2_xnor2_1
*I *352:Y O *D sg13g2_o21ai_1
*CAP
1 *354:A 0.000153902
2 *352:Y 0.000248822
3 *145:8 0.000402723
4 *354:A *354:B 0.000207948
5 *354:A *187:33 1.54008e-05
6 *145:8 *172:48 0
7 *510:A *145:8 0.000556277
8 *35:33 *145:8 0.000104036
*RES
1 *352:Y *145:8 43.0694 
2 *145:8 *354:A 41.4008 
*END

*D_NET *146 0.00151363
*CONN
*I *354:B I *D sg13g2_xnor2_1
*I *353:Y O *D sg13g2_xnor2_1
*CAP
1 *354:B 0.000371689
2 *353:Y 0.000371689
3 *354:B *187:33 0
4 *354:B *216:14 0.000562301
5 *354:A *354:B 0.000207948
*RES
1 *353:Y *354:B 43.7801 
*END

*D_NET *147 0.00118964
*CONN
*I *439:B I *D sg13g2_nor3_1
*I *355:Y O *D sg13g2_nor2_1
*CAP
1 *439:B 0.000121814
2 *355:Y 0.000312694
3 *147:10 0.000434508
4 *439:B *439:A 0
5 *147:10 *204:77 0.000144145
6 *147:10 *210:27 0
7 *386:B1 *147:10 0
8 *439:C *439:B 0.000176476
9 *41:31 *147:10 0
*RES
1 *355:Y *147:10 42.8016 
2 *147:10 *439:B 41.1845 
*END

*D_NET *148 0.0052647
*CONN
*I *401:A I *D sg13g2_nor2b_1
*I *426:A1 I *D sg13g2_o21ai_1
*I *376:A2 I *D sg13g2_a22oi_1
*I *357:A I *D sg13g2_inv_1
*I *391:B I *D sg13g2_xnor2_1
*I *356:Y O *D sg13g2_nor2_1
*CAP
1 *401:A 0.000263777
2 *426:A1 0
3 *376:A2 0.000446514
4 *357:A 0
5 *391:B 7.2834e-05
6 *356:Y 0.000236555
7 *148:42 0.000744505
8 *148:29 0.000514742
9 *148:25 0.000641372
10 *148:12 0.000470231
11 *376:A2 *376:A1 0
12 *376:A2 *186:8 0
13 *376:A2 *210:107 0.000273469
14 *391:B *205:33 0
15 *391:B *211:80 3.15716e-05
16 *401:A *200:76 0
17 *401:A *216:14 0
18 *148:12 *333:A 0
19 *148:12 *356:B 1.54008e-05
20 *148:12 *403:B1 0
21 *148:12 *205:33 0
22 *148:12 *211:80 0
23 *148:25 *403:B1 0
24 *148:29 *333:A 0
25 *148:29 *371:A 0.000112426
26 *148:29 *207:83 0.000128598
27 *148:29 *207:91 4.77425e-05
28 *148:29 *209:8 0
29 *148:42 *519:A 0
30 *148:42 *188:12 0.00012816
31 *414:C *148:42 0.000240957
32 *416:A2 *376:A2 8.17832e-05
33 *41:109 *391:B 3.13905e-05
34 *50:8 *376:A2 0.000128943
35 *50:8 *148:42 0
36 *72:8 *401:A 0
37 *72:8 *148:29 0
38 *73:8 *376:A2 0
39 *73:8 *148:42 0.000288172
40 *77:8 *391:B 0.000181062
41 *77:8 *148:25 0.000184495
42 *102:12 *376:A2 0
*RES
1 *356:Y *148:12 42.5338 
2 *148:12 *391:B 41.0558 
3 *148:12 *148:25 1.8334 
4 *148:25 *148:29 22.0497 
5 *148:29 *357:A 20 
6 *148:29 *148:42 23.708 
7 *148:42 *376:A2 44.4084 
8 *148:42 *426:A1 40 
9 *148:25 *401:A 42.0677 
*END

*D_NET *149 0.00353658
*CONN
*I *358:B I *D sg13g2_nor2_1
*I *429:A I *D sg13g2_nand2_1
*I *381:A I *D sg13g2_and2_1
*I *409:A2 I *D sg13g2_o21ai_1
*I *357:Y O *D sg13g2_inv_1
*CAP
1 *358:B 0
2 *429:A 0
3 *381:A 0.000314295
4 *409:A2 0
5 *357:Y 0.000394925
6 *149:18 0.000541044
7 *149:14 0.000541056
8 *149:10 0.000314308
9 *149:8 0.000394925
10 *381:A *381:B 8.0216e-05
11 *381:A *409:B1 6.46834e-05
12 *381:A *500:A 0.000144899
13 *381:A *209:91 1.54008e-05
14 *381:A *211:114 4.77425e-05
15 *149:8 *191:16 0
16 *149:8 *211:106 0.000494672
17 *149:14 *370:A1 0
18 *149:18 *370:A1 0
19 *149:18 *409:B1 1.54008e-05
20 *149:18 *209:91 4.77534e-05
21 *429:B *149:14 0
22 *7:8 *149:8 0
23 *39:18 *149:8 0.000125261
24 *41:85 *149:18 0
25 *41:99 *149:8 0
26 *43:10 *149:18 0
27 *97:10 *149:18 0
28 *97:14 *149:18 0
29 *129:16 *381:A 0
*RES
1 *357:Y *149:8 43.811 
2 *149:8 *149:10 20 
3 *149:10 *149:14 2.6162 
4 *149:14 *149:18 2.1836 
5 *149:18 *409:A2 20 
6 *149:18 *381:A 23.399 
7 *149:14 *429:A 20 
8 *149:10 *358:B 20 
*END

*D_NET *150 0.000924159
*CONN
*I *362:C I *D sg13g2_nand4_1
*I *358:Y O *D sg13g2_nor2_1
*CAP
1 *362:C 3.02592e-05
2 *358:Y 0.000182613
3 *150:8 0.000212872
4 *362:C *362:D 4.77425e-05
5 *7:8 *150:8 0.000387529
6 *39:18 *150:8 0
7 *129:16 *362:C 4.77425e-05
8 *129:22 *362:C 1.54008e-05
*RES
1 *358:Y *150:8 41.8334 
2 *150:8 *362:C 40.3193 
*END

*D_NET *151 0.00320487
*CONN
*I *501:A I *D sg13g2_buf_1
*I *460:B I *D sg13g2_nor3_1
*I *359:X O *D sg13g2_or2_1
*CAP
1 *501:A 0.000251985
2 *460:B 0
3 *359:X 0.000252396
4 *151:22 0.000432788
5 *151:18 0.000520337
6 *151:12 0.00059193
7 *501:A *193:24 0
8 *501:A *196:91 4.79124e-05
9 *151:12 *359:B 4.77425e-05
10 *151:12 *174:64 0.000208901
11 *151:12 *196:61 0
12 *151:22 *174:64 0.000175666
13 *151:22 *193:18 0
14 *460:C *501:A 0
15 *464:A2 *501:A 0
16 *35:33 *151:12 8.00842e-05
17 *35:41 *151:12 0
18 *39:25 *151:18 8.09323e-05
19 *39:46 *151:18 0.00044119
20 *70:27 *151:12 7.30101e-05
21 *70:44 *151:18 0
*RES
1 *359:X *151:12 42.5338 
2 *151:12 *151:18 43.3475 
3 *151:18 *151:22 21.6171 
4 *151:22 *460:B 20 
5 *151:22 *501:A 22.3999 
*END

*D_NET *152 0.0113848
*CONN
*I *426:B1 I *D sg13g2_o21ai_1
*I *443:A1 I *D sg13g2_a21oi_1
*I *454:A I *D sg13g2_nand2_1
*I *476:B I *D sg13g2_nand2b_1
*I *360:Y O *D sg13g2_nor2_1
*CAP
1 *426:B1 0.000706306
2 *443:A1 0.000642161
3 *454:A 0
4 *476:B 0
5 *360:Y 8.33954e-05
6 *152:48 0.001522
7 *152:34 4.82891e-05
8 *152:28 0.000712156
9 *152:18 0.00113169
10 *152:6 0.000724752
11 *426:B1 *426:A2 0.0001988
12 *426:B1 *158:8 0.000466015
13 *426:B1 *207:118 0
14 *443:A1 *194:37 0
15 *443:A1 *203:62 0
16 *443:A1 *210:86 0
17 *152:18 *446:B 0.000178292
18 *152:18 *448:B 0
19 *152:18 *157:27 0.000339369
20 *152:18 *157:36 0.000552472
21 *152:18 *159:43 0
22 *152:18 *189:18 0.000446621
23 *152:18 *195:19 0
24 *152:18 *203:62 0.000234592
25 *152:28 *451:A2 0
26 *152:28 *470:A 0
27 *152:28 *189:101 0
28 *152:28 *198:25 2.16289e-05
29 *412:B1 *152:18 0
30 *412:A1 *443:A1 0.000550856
31 *412:A1 *152:48 0.000181192
32 *414:C *426:B1 0
33 *433:C1 *426:B1 0.000112536
34 *433:B1 *426:B1 0
35 *443:A2 *443:A1 0.000142687
36 *443:B1 *443:A1 0
37 *451:B1 *152:18 4.78524e-05
38 *451:B1 *152:28 0.000240405
39 *476:A_N *152:34 1.54285e-05
40 *43:18 *152:28 0.000210811
41 *72:27 *152:28 0
42 *99:16 *426:B1 0.000531171
43 *112:12 *152:28 0
44 *113:18 *152:28 0.000342142
45 *114:12 *152:28 2.21356e-05
46 *123:8 *152:18 0
47 *129:16 *152:34 8.01118e-05
48 *130:38 *443:A1 0.000898961
*RES
1 *360:Y *152:6 20.7519 
2 *152:6 *152:18 46.6538 
3 *152:18 *152:28 46.6126 
4 *152:28 *152:34 40.5356 
5 *152:34 *476:B 20 
6 *152:18 *454:A 20 
7 *152:6 *152:48 21.8334 
8 *152:48 *443:A1 47.7456 
9 *152:48 *426:B1 47.4778 
*END

*D_NET *153 0.00206796
*CONN
*I *455:A I *D sg13g2_nand2_1
*I *362:D I *D sg13g2_nand4_1
*I *361:Y O *D sg13g2_nor2_1
*CAP
1 *455:A 5.65854e-05
2 *362:D 0.000190352
3 *361:Y 0.000546273
4 *153:8 0.00079321
5 *362:D *189:117 4.78521e-05
6 *153:8 *361:A 0
7 *153:8 *174:18 0
8 *362:C *362:D 4.77425e-05
9 *35:33 *153:8 0
10 *121:23 *455:A 0.000112404
11 *121:23 *153:8 0.000273545
12 *129:22 *362:D 0
13 *129:22 *153:8 0
*RES
1 *361:Y *153:8 24.9955 
2 *153:8 *362:D 21.8437 
3 *153:8 *455:A 20.7519 
*END

*D_NET *154 0.00679011
*CONN
*I *363:B I *D sg13g2_xnor2_1
*I *371:A I *D sg13g2_and2_1
*I *362:Y O *D sg13g2_nand4_1
*CAP
1 *363:B 0
2 *371:A 0.000818863
3 *362:Y 0.000115829
4 *154:29 0.00104881
5 *154:8 0.0019835
6 *371:A *333:A 0.000369502
7 *371:A *356:B 0
8 *371:A *361:A 0.000651296
9 *371:A *371:B 0.000240362
10 *371:A *200:76 0.000545679
11 *371:A *207:91 0
12 *154:8 *362:A 1.54008e-05
13 *154:8 *370:A1 0
14 *154:29 *361:A 0.000888431
15 *154:29 *174:18 0
16 *154:29 *174:20 0
17 *369:A *154:29 0
18 *510:A *371:A 0
19 *7:8 *371:A 0
20 *7:8 *154:29 0
21 *37:12 *154:29 0
22 *41:99 *371:A 0
23 *42:14 *154:29 0
24 *129:22 *154:8 0
25 *129:22 *154:29 0
26 *148:29 *371:A 0.000112426
*RES
1 *362:Y *154:8 40.9682 
2 *154:8 *371:A 49.27 
3 *154:8 *154:29 30.2588 
4 *154:29 *363:B 20 
*END

*D_NET *155 0.0046991
*CONN
*I *366:B I *D sg13g2_nand2_1
*I *380:A2 I *D sg13g2_a21oi_1
*I *379:B I *D sg13g2_nand2_1
*I *441:B I *D sg13g2_nor4_1
*I *440:A1 I *D sg13g2_o21ai_1
*I *364:X O *D sg13g2_and2_1
*CAP
1 *366:B 0.000221451
2 *380:A2 0.000241677
3 *379:B 5.58552e-05
4 *441:B 5.7059e-05
5 *440:A1 5.25724e-05
6 *364:X 0.000120706
7 *155:39 0.000579332
8 *155:28 0.000706309
9 *155:17 0.000674631
10 *155:6 0.000256601
11 *366:B *366:A 0
12 *366:B *427:A 0.000160013
13 *366:B *209:60 0.000181608
14 *379:B *209:60 0
15 *380:A2 *427:A 4.77425e-05
16 *380:A2 *189:40 1.54556e-05
17 *380:A2 *209:34 1.00461e-05
18 *380:A2 *209:45 0.00011241
19 *380:A2 *209:60 0
20 *440:A1 *364:B 0
21 *440:A1 *195:46 8.00842e-05
22 *441:B *199:81 1.54008e-05
23 *441:B *199:96 4.77425e-05
24 *155:6 *364:B 0
25 *155:6 *195:46 8.02079e-05
26 *155:17 *199:96 0.000127853
27 *155:28 *195:36 0
28 *155:28 *195:46 0
29 *155:28 *205:84 0
30 *155:39 *427:A 7.51285e-05
31 *155:39 *195:36 0
32 *155:39 *209:60 0.000181608
33 *395:B2 *380:A2 0
34 *441:C *441:B 4.78195e-05
35 *441:D *441:B 0
36 *466:B1 *379:B 0
37 *466:A2 *155:28 0.000549784
38 *71:17 *155:28 0
39 *125:14 *155:28 0
40 *125:14 *155:39 0
*RES
1 *364:X *155:6 21.1845 
2 *155:6 *440:A1 20.5356 
3 *155:6 *155:17 20.8446 
4 *155:17 *441:B 40.5356 
5 *155:17 *155:28 4.7998 
6 *155:28 *379:B 40.5356 
7 *155:28 *155:39 1.339 
8 *155:39 *380:A2 42.266 
9 *155:39 *366:B 42.678 
*END

*D_NET *156 0.000525301
*CONN
*I *418:A1 I *D sg13g2_a21o_1
*I *365:Y O *D sg13g2_nand2_1
*CAP
1 *418:A1 0.000173967
2 *365:Y 0.000173967
3 *418:A1 *365:B 1.54008e-05
4 *418:A1 *201:45 8.02105e-05
5 *418:A1 *207:55 0
6 *417:A1 *418:A1 0
7 *56:72 *418:A1 8.1756e-05
*RES
1 *365:Y *418:A1 41.6171 
*END

*D_NET *157 0.00783374
*CONN
*I *446:B I *D sg13g2_nand2b_1
*I *459:B I *D sg13g2_nor2_1
*I *368:A I *D sg13g2_nor2_1
*I *397:A1 I *D sg13g2_a21oi_1
*I *366:Y O *D sg13g2_nand2_1
*CAP
1 *446:B 0.000595909
2 *459:B 0
3 *368:A 0
4 *397:A1 0
5 *366:Y 0.000111586
6 *157:36 0.000702058
7 *157:27 0.000395923
8 *157:18 0.000197128
9 *157:12 0.00101952
10 *157:8 0.000644202
11 *446:B *189:105 0
12 *446:B *189:117 0
13 *157:8 *195:36 0
14 *157:12 *205:74 0
15 *157:18 *205:74 0
16 *157:27 *203:62 0
17 *451:B1 *446:B 0.000256707
18 *97:33 *157:27 0.000710299
19 *112:12 *446:B 0.000315516
20 *112:12 *157:27 0.00124083
21 *112:12 *157:36 0.000530423
22 *113:8 *446:B 1.54556e-05
23 *114:12 *446:B 0
24 *118:12 *446:B 2.80562e-05
25 *119:12 *446:B 0
26 *127:14 *446:B 0
27 *129:16 *446:B 0
28 *152:18 *446:B 0.000178292
29 *152:18 *157:27 0.000339369
30 *152:18 *157:36 0.000552472
*RES
1 *366:Y *157:8 41.0918 
2 *157:8 *157:12 25.5105 
3 *157:12 *157:18 41.8334 
4 *157:18 *397:A1 20 
5 *157:12 *157:27 25.7886 
6 *157:27 *368:A 40 
7 *157:27 *157:36 2.575 
8 *157:36 *459:B 40 
9 *157:36 *446:B 46.592 
*END

*D_NET *158 0.00854609
*CONN
*I *468:B1 I *D sg13g2_a21oi_1
*I *368:B I *D sg13g2_nor2_1
*I *432:A I *D sg13g2_nor2_1
*I *422:A I *D sg13g2_nor2_1
*I *392:B1 I *D sg13g2_a21oi_1
*I *367:Y O *D sg13g2_nand2_1
*CAP
1 *468:B1 0.000222512
2 *368:B 0.000405072
3 *432:A 0
4 *422:A 0
5 *392:B1 0
6 *367:Y 0
7 *158:46 0.00047232
8 *158:39 0.000201295
9 *158:26 0.000350989
10 *158:18 0.00151333
11 *158:8 0.00157147
12 *158:4 0.000765689
13 *368:B *171:8 0
14 *368:B *194:22 0
15 *368:B *195:19 0.00027267
16 *468:B1 *367:A 4.77425e-05
17 *468:B1 *469:A 0
18 *468:B1 *195:25 3.23417e-05
19 *468:B1 *195:36 8.02763e-05
20 *158:8 *367:A 0.000112511
21 *158:8 *195:25 0.000274452
22 *158:8 *207:118 0
23 *158:18 *171:8 0
24 *158:18 *189:44 0
25 *158:18 *194:22 0
26 *158:18 *203:37 0.000280657
27 *158:18 *210:78 7.33256e-05
28 *158:18 *210:107 0.000490114
29 *158:26 *400:A1 0.000111657
30 *158:39 *423:A1 0
31 *158:39 *515:A 0
32 *158:46 *171:8 0
33 *158:46 *194:22 0
34 *410:B *468:B1 0
35 *412:B1 *158:8 0
36 *412:A1 *158:8 0
37 *426:B1 *158:8 0.000466015
38 *468:A2 *468:B1 0
39 *468:A2 *158:8 0
40 *469:B *468:B1 0
41 *31:16 *158:18 0
42 *31:16 *158:26 0
43 *31:35 *158:18 0
44 *35:49 *368:B 0.000143769
45 *56:59 *158:26 0.000143999
46 *74:33 *158:39 0.000126354
47 *75:12 *158:39 0
48 *81:6 *158:8 0
49 *91:10 *158:39 0.000387529
*RES
1 *367:Y *158:4 20 
2 *158:4 *158:8 25.5105 
3 *158:8 *158:18 30.1455 
4 *158:18 *158:26 43.4505 
5 *158:26 *392:B1 20 
6 *158:18 *158:39 42.2157 
7 *158:39 *422:A 20 
8 *158:8 *158:46 0.5974 
9 *158:46 *432:A 40 
10 *158:46 *368:B 43.914 
11 *158:4 *468:B1 22.9767 
*END

*D_NET *159 0.00606341
*CONN
*I *472:B I *D sg13g2_nor2_1
*I *370:A1 I *D sg13g2_a21o_1
*I *368:Y O *D sg13g2_nor2_1
*CAP
1 *472:B 0
2 *370:A1 0.00124713
3 *368:Y 3.71811e-05
4 *159:43 0.00077156
5 *159:10 0.00201869
6 *159:8 3.71811e-05
7 *370:A1 *370:A2 4.92826e-05
8 *370:A1 *409:B1 0
9 *370:A1 *413:A 0
10 *370:A1 *191:16 0.000176426
11 *370:A1 *192:8 4.77425e-05
12 *370:A1 *192:123 0
13 *370:A1 *198:6 8.0216e-05
14 *370:A1 *198:36 0.000143171
15 *370:A1 *211:106 0.00020956
16 *159:43 *409:B1 0
17 *159:43 *448:B 0.000288379
18 *159:43 *472:A 0.00011211
19 *159:43 *189:24 0.000144156
20 *159:43 *193:39 0
21 *159:43 *195:105 0
22 *159:43 *198:36 0.00025892
23 *450:B *159:43 8.02763e-05
24 *451:B1 *159:43 0
25 *465:A2 *159:43 0
26 *41:64 *159:8 0.000180894
27 *41:99 *370:A1 0
28 *72:50 *159:43 0
29 *112:12 *159:8 0.00018054
30 *123:8 *159:43 0
31 *149:14 *370:A1 0
32 *149:18 *370:A1 0
33 *152:18 *159:43 0
34 *154:8 *370:A1 0
*RES
1 *368:Y *159:8 40.8446 
2 *159:8 *159:10 20 
3 *159:10 *370:A1 31.2888 
4 *159:10 *159:43 47.8074 
5 *159:43 *472:B 20 
*END

*D_NET *160 0.00143806
*CONN
*I *370:A2 I *D sg13g2_a21o_1
*I *369:Y O *D sg13g2_nor2_1
*CAP
1 *370:A2 0.000654532
2 *369:Y 0.000654532
3 *370:A2 *369:B 7.9712e-05
4 *370:A2 *499:A 0
5 *370:A2 *172:48 0
6 *370:A2 *191:20 0
7 *370:A1 *370:A2 4.92826e-05
8 *42:14 *370:A2 0
*RES
1 *369:Y *370:A2 46.1285 
*END

*D_NET *161 0.0015782
*CONN
*I *371:B I *D sg13g2_and2_1
*I *370:X O *D sg13g2_a21o_1
*CAP
1 *371:B 0.000131649
2 *370:X 0.000416961
3 *161:8 0.00054861
4 *371:B *207:91 0.000240621
5 *161:8 *191:57 0
6 *161:8 *200:76 0
7 *161:8 *209:14 0
8 *371:A *371:B 0.000240362
*RES
1 *370:X *161:8 43.3166 
2 *161:8 *371:B 41.6171 
*END

*D_NET *162 0.00513205
*CONN
*I *404:B1 I *D sg13g2_a21oi_1
*I *383:B1 I *D sg13g2_a21oi_1
*I *419:B1 I *D sg13g2_a21oi_1
*I *372:Y O *D sg13g2_nand2b_1
*CAP
1 *404:B1 0.00100602
2 *383:B1 6.89414e-05
3 *419:B1 0.000142698
4 *372:Y 3.01489e-05
5 *162:19 0.00174519
6 *162:6 0.000843071
7 *383:B1 *399:B_N 0
8 *404:B1 *192:35 0
9 *404:B1 *207:118 0.000234398
10 *404:B1 *209:22 0
11 *404:B1 *209:24 0
12 *419:B1 *199:26 0
13 *162:6 *199:26 0
14 *162:19 *192:35 0
15 *162:19 *201:33 0
16 *419:A1 *419:B1 0
17 *419:A1 *162:6 0
18 *433:B1 *404:B1 0
19 *433:A2 *404:B1 0.000144102
20 *31:35 *404:B1 0
21 *31:39 *404:B1 7.51285e-05
22 *52:8 *404:B1 0.000335147
23 *87:8 *162:19 0
24 *89:8 *162:19 0.000395452
25 *90:8 *162:19 0
26 *99:16 *404:B1 0
27 *101:10 *404:B1 0.00011176
*RES
1 *372:Y *162:6 20.3193 
2 *162:6 *419:B1 21.1845 
3 *162:6 *162:19 26.3551 
4 *162:19 *383:B1 40.5356 
5 *162:19 *404:B1 48.6726 
*END

*D_NET *163 0.00132351
*CONN
*I *468:A1 I *D sg13g2_a21oi_1
*I *394:A_N I *D sg13g2_nand2b_1
*I *373:Y O *D sg13g2_nor2_1
*CAP
1 *468:A1 0.00013273
2 *394:A_N 3.5379e-05
3 *373:Y 3.10612e-05
4 *163:8 0.00019917
5 *394:A_N *207:135 0.000181279
6 *468:A1 *207:135 7.51285e-05
7 *163:8 *207:118 4.77425e-05
8 *163:8 *209:60 1.54008e-05
9 *125:14 *394:A_N 0.000181279
10 *125:14 *468:A1 0.000424342
*RES
1 *373:Y *163:8 40.3193 
2 *163:8 *394:A_N 40.8446 
3 *163:8 *468:A1 42.0806 
*END

*D_NET *164 0.00240263
*CONN
*I *375:A I *D sg13g2_inv_1
*I *376:B1 I *D sg13g2_a22oi_1
*I *426:A2 I *D sg13g2_o21ai_1
*I *374:Y O *D sg13g2_xnor2_1
*CAP
1 *375:A 0.000222348
2 *376:B1 0.000155639
3 *426:A2 0.000212014
4 *374:Y 0
5 *164:21 0.000509993
6 *164:4 0.00034402
7 *375:A *207:118 0
8 *375:A *210:107 0
9 *376:B1 *166:8 7.51845e-05
10 *376:B1 *194:22 0
11 *426:A2 *374:B 0
12 *164:21 *194:22 0
13 *164:21 *207:118 8.00842e-05
14 *426:B1 *426:A2 0.0001988
15 *31:35 *375:A 0
16 *31:35 *376:B1 0.000445454
17 *31:35 *164:21 0.000159096
18 *65:33 *376:B1 0
*RES
1 *374:Y *164:4 20 
2 *164:4 *426:A2 22.3484 
3 *164:4 *164:21 21.5965 
4 *164:21 *376:B1 42.0806 
5 *164:21 *375:A 40.9559 
*END

*D_NET *165 9.62488e-05
*CONN
*I *397:A2 I *D sg13g2_a21oi_1
*I *375:Y O *D sg13g2_inv_1
*CAP
1 *397:A2 4.81244e-05
2 *375:Y 4.81244e-05
3 *397:A2 *207:110 0
4 *431:A2 *397:A2 0
*RES
1 *375:Y *397:A2 40.5974 
*END

*D_NET *166 0.0023662
*CONN
*I *377:A_N I *D sg13g2_nand2b_1
*I *421:A2 I *D sg13g2_o21ai_1
*I *376:Y O *D sg13g2_a22oi_1
*CAP
1 *377:A_N 3.64403e-05
2 *421:A2 0.000130376
3 *376:Y 0.000392377
4 *166:8 0.000559193
5 *377:A_N *201:14 8.00842e-05
6 *421:A2 *201:18 0
7 *421:A2 *201:20 0
8 *376:B1 *166:8 7.51845e-05
9 *420:A2 *421:A2 0
10 *52:8 *166:8 0
11 *65:18 *421:A2 0.000128576
12 *65:18 *166:8 0.000703225
13 *65:33 *166:8 0.000260748
14 *89:8 *166:8 0
*RES
1 *376:Y *166:8 44.5526 
2 *166:8 *421:A2 41.3802 
3 *166:8 *377:A_N 40.5356 
*END

*D_NET *167 0.000772552
*CONN
*I *399:B_N I *D sg13g2_nor2b_1
*I *383:A1 I *D sg13g2_a21oi_1
*I *377:Y O *D sg13g2_nand2b_1
*CAP
1 *399:B_N 0.000162534
2 *383:A1 0
3 *377:Y 0.000144247
4 *167:8 0.000306781
5 *399:B_N *209:34 8.0216e-05
6 *383:A2 *399:B_N 6.38261e-05
7 *383:A2 *167:8 1.49483e-05
8 *383:B1 *399:B_N 0
*RES
1 *377:Y *167:8 21.3802 
2 *167:8 *383:A1 20 
3 *167:8 *399:B_N 22.163 
*END

*D_NET *168 0.00302197
*CONN
*I *436:C I *D sg13g2_nor3_1
*I *382:A2 I *D sg13g2_o21ai_1
*I *424:B I *D sg13g2_nand2b_1
*I *378:Y O *D sg13g2_nand2_1
*CAP
1 *436:C 0
2 *382:A2 0.00014171
3 *424:B 0
4 *378:Y 0.000407649
5 *168:16 0.000708552
6 *168:12 0.000974491
7 *382:A2 *194:37 0.000233249
8 *382:A2 *210:72 0
9 *382:A2 *210:78 0
10 *168:12 *402:B1 0
11 *168:12 *436:B 8.03091e-05
12 *168:12 *201:71 0
13 *168:12 *206:75 0
14 *168:12 *206:88 0
15 *168:16 *199:43 0.000283389
16 *168:16 *201:33 0
17 *168:16 *210:72 0
18 *378:A *168:12 0.000177164
19 *437:A *168:12 0
20 *437:B *168:12 1.54556e-05
21 *438:B *168:12 0
22 *41:51 *168:16 0
23 *65:10 *168:16 0
24 *65:18 *382:A2 0
*RES
1 *378:Y *168:12 24.0541 
2 *168:12 *168:16 24.5526 
3 *168:16 *424:B 40 
4 *168:16 *382:A2 41.5862 
5 *168:12 *436:C 20 
*END

*D_NET *169 0.000596305
*CONN
*I *427:B I *D sg13g2_nand3_1
*I *379:Y O *D sg13g2_nand2_1
*CAP
1 *427:B 0
2 *379:Y 9.0106e-05
3 *169:8 9.0106e-05
4 *169:8 *427:A 0.000128248
5 *125:14 *169:8 0.000287846
*RES
1 *379:Y *169:8 41.339 
2 *169:8 *427:B 40 
*END

*D_NET *170 0.00692727
*CONN
*I *395:B1 I *D sg13g2_a221oi_1
*I *430:A I *D sg13g2_xnor2_1
*I *470:A I *D sg13g2_nor2b_1
*I *381:B I *D sg13g2_and2_1
*I *380:Y O *D sg13g2_a21oi_1
*CAP
1 *395:B1 0
2 *430:A 0
3 *470:A 0.000330934
4 *381:B 7.77897e-05
5 *380:Y 0.000171756
6 *170:20 0.001224
7 *170:14 0.00105411
8 *170:12 0.000265697
9 *170:8 0.000198614
10 *381:B *451:A2 0
11 *470:A *171:8 0.000104489
12 *170:8 *189:32 0.000180882
13 *170:8 *202:34 0
14 *170:8 *205:84 0
15 *170:12 *202:34 1.54008e-05
16 *170:12 *202:45 3.23417e-05
17 *170:14 *189:40 0
18 *170:14 *202:34 8.0216e-05
19 *170:20 *171:8 0.00182198
20 *381:A *381:B 8.0216e-05
21 *398:C *170:14 0
22 *398:C *170:20 0
23 *430:B *170:14 4.77425e-05
24 *430:B *170:20 1.54008e-05
25 *431:B1 *170:14 0
26 *35:49 *470:A 0.000551792
27 *35:49 *170:20 0.000498198
28 *41:53 *170:20 0
29 *41:64 *170:20 0
30 *114:12 *470:A 0
31 *118:12 *470:A 0
32 *127:14 *470:A 0.000111027
33 *127:29 *470:A 6.46834e-05
34 *152:28 *470:A 0
*RES
1 *380:Y *170:8 41.8334 
2 *170:8 *170:12 20.3193 
3 *170:12 *170:14 2.266 
4 *170:14 *170:20 29.6923 
5 *170:20 *381:B 40.7519 
6 *170:20 *470:A 43.7595 
7 *170:14 *430:A 20 
8 *170:12 *395:B1 20 
*END

*D_NET *171 0.0050968
*CONN
*I *451:A2 I *D sg13g2_a21oi_1
*I *382:B1 I *D sg13g2_o21ai_1
*I *381:X O *D sg13g2_and2_1
*CAP
1 *451:A2 0.000107104
2 *382:B1 6.75702e-05
3 *381:X 0
4 *171:8 0.00122304
5 *171:4 0.00126258
6 *382:B1 *201:10 0
7 *171:8 *194:22 0
8 *171:8 *194:37 0.000495088
9 *171:8 *198:25 0
10 *368:B *171:8 0
11 *381:B *451:A2 0
12 *383:A2 *382:B1 1.49483e-05
13 *451:B1 *451:A2 0
14 *470:A *171:8 0.000104489
15 *41:53 *171:8 0
16 *152:28 *451:A2 0
17 *158:18 *171:8 0
18 *158:46 *171:8 0
19 *170:20 *171:8 0.00182198
*RES
1 *381:X *171:4 20 
2 *171:4 *171:8 32.463 
3 *171:8 *382:B1 40.5356 
4 *171:4 *451:A2 21.133 
*END

*D_NET *172 0.00378188
*CONN
*I *499:A I *D sg13g2_buf_16
*I *498:A I *D sg13g2_buf_16
*I *497:X O *D sg13g2_buf_16
*CAP
1 *499:A 0.000111531
2 *498:A 0.000138669
3 *497:X 0
4 *172:50 0.000111531
5 *172:48 0.00099791
6 *172:35 0.00099791
7 *172:15 0.000781497
8 *172:6 0.000642829
9 *172:15 *173:24 0
10 *172:15 *196:40 0
11 *172:15 *199:12 0
12 *172:48 *361:A 0
13 *172:48 *369:B 0
14 *172:48 *191:20 0
15 *172:48 *191:57 0
16 *370:A2 *499:A 0
17 *370:A2 *172:48 0
18 *508:A *172:15 0
19 *31:12 *498:A 0
20 *31:12 *172:15 0
21 *35:33 *172:48 0
22 *37:12 *172:48 0
23 *129:22 *499:A 0
24 *129:39 *172:48 0
25 *141:14 *498:A 0
26 *141:14 *172:15 0
27 *145:8 *172:48 0
*RES
1 *497:X *172:6 40 
2 *172:6 *172:15 25.5517 
3 *172:15 *498:A 21.424 
4 *497:X *172:35 40 
5 *172:35 *172:48 47.7868 
6 *172:48 *172:50 20 
7 *172:50 *499:A 20.9682 
*END

*D_NET *173 0.00465266
*CONN
*I *488:CLK I *D sg13g2_dfrbpq_1
*I *490:CLK I *D sg13g2_dfrbpq_1
*I *491:CLK I *D sg13g2_dfrbpq_1
*I *492:CLK I *D sg13g2_dfrbpq_1
*I *489:CLK I *D sg13g2_dfrbpq_1
*I *498:X O *D sg13g2_buf_16
*CAP
1 *488:CLK 0.000373896
2 *490:CLK 0
3 *491:CLK 0.000219002
4 *492:CLK 0
5 *489:CLK 0.000198206
6 *498:X 0.000198206
7 *173:33 0.000421601
8 *173:31 0.000604222
9 *173:24 0.000804017
10 *173:18 0.000831744
11 *488:CLK *190:86 0
12 *173:24 *190:10 0
13 *173:24 *190:12 0
14 *173:24 *196:16 0.000234224
15 *173:24 *196:40 0
16 *173:24 *199:26 0
17 *173:24 *211:16 0
18 *490:RESET_B *488:CLK 0
19 *490:RESET_B *489:CLK 0.000235859
20 *490:RESET_B *173:33 0
21 *491:RESET_B *491:CLK 0
22 *27:20 *173:24 0
23 *29:10 *488:CLK 0
24 *33:26 *489:CLK 0
25 *47:12 *488:CLK 0.000531679
26 *139:10 *173:24 0
27 *172:15 *173:24 0
*RES
1 *498:X *489:CLK 42.2145 
2 *498:X *173:18 20 
3 *173:18 *173:24 47.7662 
4 *173:24 *492:CLK 20 
5 *173:18 *173:31 0.3502 
6 *173:31 *173:33 1.8334 
7 *173:33 *491:CLK 22.266 
8 *173:33 *490:CLK 20 
9 *173:31 *488:CLK 24.3466 
*END

*D_NET *174 0.0094834
*CONN
*I *500:A I *D sg13g2_inv_1
*I *496:CLK I *D sg13g2_dfrbpq_1
*I *494:CLK I *D sg13g2_dfrbpq_1
*I *493:CLK I *D sg13g2_dfrbpq_1
*I *495:CLK I *D sg13g2_dfrbpq_1
*I *499:X O *D sg13g2_buf_16
*CAP
1 *500:A 0.000238297
2 *496:CLK 0
3 *494:CLK 0
4 *493:CLK 0
5 *495:CLK 0.000263006
6 *499:X 2.69992e-05
7 *174:64 0.0016181
8 *174:35 0.000461187
9 *174:20 0.000887921
10 *174:18 0.000599339
11 *174:14 0.000807406
12 *174:6 0.00177859
13 *495:CLK *363:A 4.77425e-05
14 *500:A *409:B1 0.00024046
15 *174:14 *179:8 0
16 *174:14 *189:131 0
17 *174:18 *361:A 0
18 *174:18 *189:131 0
19 *174:18 *192:83 0
20 *174:35 *192:83 0
21 *174:35 *212:8 7.51285e-05
22 *174:64 *453:A1 2.35424e-05
23 *174:64 *458:B 0
24 *174:64 *477:A 0
25 *174:64 *181:8 0.000126047
26 *174:64 *189:131 0
27 *174:64 *192:67 0
28 *174:64 *193:18 0
29 *174:64 *194:22 0
30 *174:64 *196:61 0
31 *174:64 *196:70 0.000209939
32 *174:64 *196:85 0.000351051
33 *174:64 *198:25 0
34 *381:A *500:A 0.000144899
35 *26:10 *495:CLK 0
36 *27:14 *174:18 0
37 *27:14 *174:20 0
38 *27:20 *174:35 0
39 *35:33 *174:14 0
40 *35:33 *174:18 0.000176537
41 *35:33 *174:64 0
42 *35:41 *174:64 0
43 *35:49 *174:64 0
44 *39:31 *174:64 6.39133e-05
45 *50:18 *174:35 0
46 *112:20 *174:64 0
47 *113:18 *174:35 0.000393372
48 *114:12 *174:64 0
49 *118:12 *174:64 0.000174805
50 *121:23 *174:14 0
51 *121:23 *174:18 0
52 *127:14 *174:64 0
53 *129:8 *174:64 0.000390552
54 *151:12 *174:64 0.000208901
55 *151:22 *174:64 0.000175666
56 *153:8 *174:18 0
57 *154:29 *174:18 0
58 *154:29 *174:20 0
*RES
1 *499:X *174:6 20.3502 
2 *174:6 *174:14 43.1415 
3 *174:14 *174:18 4.3466 
4 *174:18 *174:20 0.443 
5 *174:20 *495:CLK 22.6162 
6 *174:20 *174:35 44.5526 
7 *174:35 *493:CLK 20 
8 *174:18 *494:CLK 20 
9 *174:14 *496:CLK 20 
10 *174:6 *174:64 33.6269 
11 *174:64 *500:A 42.266 
*END

*D_NET *175 0.00944203
*CONN
*I *487:A I *D sg13g2_inv_1
*I *521:A I *D sg13g2_buf_1
*I *523:X O *D sg13g2_buf_1
*CAP
1 *487:A 0
2 *521:A 0.000712931
3 *523:X 0.000376164
4 *175:57 0.00159123
5 *175:28 0.00102079
6 *175:10 0.00227525
7 *521:A *336:A 4.6793e-05
8 *521:A *211:8 0
9 *521:A *211:37 0
10 *175:10 *479:A 0
11 *175:10 *200:14 4.71858e-05
12 *175:10 *207:34 0
13 *175:28 *336:A 0.000169743
14 *175:28 *337:A 7.32115e-05
15 *175:28 *337:B 0
16 *175:28 *203:16 0.000125705
17 *175:28 *206:16 0.000143277
18 *175:28 *206:39 0
19 *175:57 *406:A 0.000553625
20 *175:57 *407:B1 0.000369485
21 *175:57 *188:12 0
22 *175:57 *203:16 0.000180809
23 *175:57 *203:29 0
24 *175:57 *207:8 7.97166e-05
25 *175:57 *207:110 0.000241429
26 *175:57 *211:80 0
27 *415:A1 *175:57 0
28 *415:B1 *175:57 0
29 *489:RESET_B *521:A 0
30 *489:RESET_B *175:28 0
31 *489:D *521:A 0
32 *489:D *175:28 7.91362e-05
33 *491:RESET_B *521:A 0
34 *518:A *175:57 0.000208495
35 *523:A *175:10 0
36 *28:10 *175:10 0
37 *28:10 *175:57 0
38 *32:12 *521:A 0.000243969
39 *34:10 *521:A 0.000274583
40 *41:99 *175:57 0.000166113
41 *41:109 *175:57 0.000143784
42 *44:8 *175:57 0
43 *56:59 *175:57 0.000232752
44 *84:10 *175:57 0
45 *131:10 *521:A 8.58658e-05
*RES
1 *523:X *175:10 43.3887 
2 *175:10 *175:28 43.641 
3 *175:28 *521:A 47.6786 
4 *175:10 *175:57 36.892 
5 *175:57 *487:A 20 
*END

*D_NET *176 0.000435009
*CONN
*I *524:A I *D sg13g2_buf_1
*I *477:Y O *D sg13g2_nand3_1
*CAP
1 *524:A 2.60565e-05
2 *477:Y 4.49273e-05
3 *176:8 7.09838e-05
4 *524:A *192:67 4.77425e-05
5 *524:A *196:61 4.77425e-05
6 *176:8 *191:8 0
7 *176:8 *192:67 0.000124547
8 *70:27 *176:8 7.30101e-05
*RES
1 *477:Y *176:8 40.5974 
2 *176:8 *524:A 40.3193 
*END

*D_NET *177 0.0045217
*CONN
*I *525:A I *D sg13g2_buf_1
*I *435:Y O *D sg13g2_o21ai_1
*CAP
1 *525:A 0.000850285
2 *435:Y 0.000840398
3 *177:8 0.00169068
4 *525:A *190:96 0
5 *525:A *199:12 0
6 *177:8 *403:B1 0
7 *177:8 *205:33 0
8 *177:8 *207:91 0
9 *177:8 *211:86 0
10 *347:A *525:A 4.77425e-05
11 *348:B1 *525:A 0
12 *352:A1 *525:A 0
13 *492:RESET_B *525:A 8.00995e-05
14 *25:8 *177:8 0.000705458
15 *27:20 *525:A 0
16 *31:12 *525:A 0
17 *42:8 *525:A 0
18 *42:14 *177:8 0
19 *141:14 *525:A 0.000307035
*RES
1 *435:Y *177:8 47.2718 
2 *177:8 *525:A 48.0443 
*END

*D_NET *178 0.00770779
*CONN
*I *526:A I *D sg13g2_buf_1
*I *453:Y O *D sg13g2_o21ai_1
*CAP
1 *526:A 0
2 *453:Y 0.0002929
3 *178:24 0.000803243
4 *178:16 0.00204433
5 *178:12 0.00153399
6 *178:12 *194:22 0
7 *178:24 *187:10 0.000977945
8 *178:24 *196:24 0
9 DATA[1] *178:24 0
10 DATA[2] *178:24 0
11 *351:A *178:24 0
12 *492:RESET_B *178:24 0
13 *21:14 *178:16 0
14 *22:8 *178:24 0
15 *26:10 *178:24 0
16 *35:41 *178:12 6.98766e-05
17 *39:12 *178:16 0
18 *39:25 *178:16 0
19 *39:46 *178:16 0
20 *112:20 *178:12 7.50805e-05
21 *113:18 *178:16 0.00191042
22 *128:10 *178:12 0
*RES
1 *453:Y *178:12 42.7501 
2 *178:12 *178:16 34.5951 
3 *178:16 *178:24 49.3215 
4 *178:24 *526:A 20 
*END

*D_NET *179 0.000641419
*CONN
*I *527:A I *D sg13g2_buf_1
*I *456:Y O *D sg13g2_nor2_1
*CAP
1 *527:A 0
2 *456:Y 0.000141325
3 *179:8 0.000141325
4 *179:8 *182:20 0.000231845
5 *179:8 *189:131 0.000126924
6 *39:8 *179:8 0
7 *174:14 *179:8 0
*RES
1 *456:Y *179:8 41.8334 
2 *179:8 *527:A 40 
*END

*D_NET *180 0.00248077
*CONN
*I *528:A I *D sg13g2_buf_1
*I *458:Y O *D sg13g2_nor3_1
*CAP
1 *528:A 0
2 *458:Y 4.60973e-05
3 *180:14 0.000573091
4 *180:8 0.000619188
5 *180:8 *192:67 8.02105e-05
6 *180:8 *196:61 4.77425e-05
7 *70:33 *180:14 0.000117018
8 *70:44 *180:14 0.000997427
*RES
1 *458:Y *180:8 40.5356 
2 *180:8 *180:14 47.2409 
3 *180:14 *528:A 40 
*END

*D_NET *181 0.00056311
*CONN
*I *529:A I *D sg13g2_buf_1
*I *460:Y O *D sg13g2_nor3_1
*CAP
1 *529:A 0
2 *460:Y 0.000218531
3 *181:8 0.000218531
4 *181:8 *505:A 0
5 *39:46 *181:8 0
6 *174:64 *181:8 0.000126047
*RES
1 *460:Y *181:8 42.0806 
2 *181:8 *529:A 40 
*END

*D_NET *182 0.00666322
*CONN
*I *530:A I *D sg13g2_buf_1
*I *462:Y O *D sg13g2_a21oi_1
*CAP
1 *530:A 0
2 *462:Y 0.00035846
3 *182:20 0.000196183
4 *182:12 0.00151415
5 *182:8 0.00167642
6 *182:8 *471:B1 0
7 *182:8 *193:28 0
8 *182:8 *194:61 0
9 *182:12 *541:A 0.000888945
10 *182:12 *194:61 0
11 *182:20 *189:131 4.75881e-05
12 *182:20 *192:77 7.43655e-05
13 DATA[10] *182:8 0.000128662
14 DATA[12] *182:8 0
15 DATA[15] *182:12 0.000791041
16 DATA[3] *182:12 0.000627313
17 DATA[4] *182:20 0
18 *467:A *182:8 0
19 *503:A *182:12 0
20 *13:8 *182:12 0
21 *23:12 *182:12 0
22 *123:8 *182:8 0
23 *125:14 *182:8 0
24 *127:29 *182:8 0.000128247
25 *179:8 *182:20 0.000231845
*RES
1 *462:Y *182:8 43.811 
2 *182:8 *182:12 35.244 
3 *182:12 *182:20 42.3999 
4 *182:20 *530:A 20 
*END

*D_NET *183 0.000733421
*CONN
*I *531:A I *D sg13g2_buf_1
*I *463:Y O *D sg13g2_a21oi_1
*CAP
1 *531:A 0.000302663
2 *463:Y 0.000302663
3 *531:A *185:12 0
4 DATA[13] *531:A 0
5 *462:B1 *531:A 0
6 *463:B1 *531:A 0
7 *5:10 *531:A 4.78356e-05
8 *16:10 *531:A 8.02598e-05
*RES
1 *463:Y *531:A 43.6874 
*END

*D_NET *184 0.000496672
*CONN
*I *532:A I *D sg13g2_buf_1
*I *464:Y O *D sg13g2_a21oi_1
*CAP
1 *532:A 0.000157312
2 *464:Y 0.000157312
3 *532:A *463:A1 0
4 *532:A *538:A 0.000166648
5 DATA[13] *532:A 1.54008e-05
6 *3:10 *532:A 0
*RES
1 *464:Y *532:A 41.751 
*END

*D_NET *185 0.00106267
*CONN
*I *533:A I *D sg13g2_buf_1
*I *465:Y O *D sg13g2_a21oi_1
*CAP
1 *533:A 4.84167e-05
2 *465:Y 0.000245763
3 *185:12 0.00029418
4 *533:A *214:10 8.01612e-05
5 *185:12 *469:A 0
6 *185:12 *193:52 0
7 *185:12 *208:12 0.000394151
8 *185:12 *214:10 0
9 *463:B1 *185:12 0
10 *531:A *185:12 0
11 *124:6 *185:12 0
*RES
1 *465:Y *185:12 43.1518 
2 *185:12 *533:A 40.5356 
*END

*D_NET *186 0.00650147
*CONN
*I *534:A I *D sg13g2_buf_1
*I *416:Y O *D sg13g2_a22oi_1
*CAP
1 *534:A 0
2 *416:Y 0.000611395
3 *186:16 0
4 *186:12 0.00104082
5 *186:8 0.00165222
6 *186:8 *519:A 0
7 *186:8 *192:12 0
8 *186:8 *196:46 7.31628e-05
9 *186:8 *205:27 0
10 *186:8 *211:106 0.00091762
11 *186:12 *196:42 0.0010798
12 *376:A2 *186:8 0
13 *21:14 *186:12 0
14 *50:12 *186:12 0
15 *74:18 *186:8 0
16 *84:10 *186:8 0.000495092
17 *101:18 *186:12 0
18 *102:12 *186:12 0.000631361
*RES
1 *416:Y *186:8 47.0246 
2 *186:8 *186:12 31.9995 
3 *186:12 *186:16 40 
4 *186:16 *534:A 20 
*END

*D_NET *187 0.00733328
*CONN
*I *522:A I *D sg13g2_dlygate4sd3_1
*I *333:A I *D sg13g2_inv_1
*I *535:A I *D sg13g2_buf_1
*I *495:Q O *D sg13g2_dfrbpq_1
*CAP
1 *522:A 0.000169504
2 *333:A 0.000362473
3 *535:A 5.39386e-05
4 *495:Q 0
5 *187:33 0.00138949
6 *187:10 0.00176678
7 *187:4 0.000855329
8 *333:A *211:80 0
9 *535:A *349:A 0
10 *535:A *474:A 0
11 *187:10 *216:10 0.000394184
12 *187:33 *403:B1 0.000287672
13 *187:33 *474:A 0
14 *187:33 *207:91 0.000181279
15 *187:33 *216:14 0
16 DATA[1] *187:10 0
17 DATA[2] *187:10 0
18 *352:B1 *535:A 0
19 *352:B1 *187:33 0
20 *354:A *187:33 1.54008e-05
21 *354:B *187:33 0
22 *371:A *333:A 0.000369502
23 *414:C *333:A 0.000268852
24 *493:RESET_B *187:33 0
25 *22:8 *187:10 0
26 *23:12 *522:A 0
27 *25:8 *187:33 0
28 *26:10 *187:10 0
29 *27:14 *522:A 0
30 *35:10 *187:33 0.000240937
31 *148:12 *333:A 0
32 *148:29 *333:A 0
33 *178:24 *187:10 0.000977945
*RES
1 *495:Q *187:4 20 
2 *187:4 *187:10 49.2494 
3 *187:10 *535:A 20.5356 
4 *187:10 *187:33 49.9498 
5 *187:33 *333:A 23.7518 
6 *187:4 *522:A 21.6171 
*END

*D_NET *188 0.00186481
*CONN
*I *536:A I *D sg13g2_buf_1
*I *333:Y O *D sg13g2_inv_1
*CAP
1 *536:A 0
2 *333:Y 0.000488102
3 *188:12 0.000488102
4 *404:A1 *188:12 0
5 *414:C *188:12 0.000208615
6 *415:A1 *188:12 0
7 *433:B1 *188:12 0
8 *73:8 *188:12 0
9 *82:12 *188:12 0.000551826
10 *102:12 *188:12 0
11 *148:42 *188:12 0.00012816
12 *175:57 *188:12 0
*RES
1 *333:Y *188:12 45.0676 
2 *188:12 *536:A 40 
*END

*D_NET *189 0.0199647
*CONN
*I *446:A_N I *D sg13g2_nand2b_1
*I *458:B I *D sg13g2_nor3_1
*I *361:B I *D sg13g2_nor2_1
*I *448:C I *D sg13g2_nand3b_1
*I *428:A_N I *D sg13g2_nand2b_1
*I *395:C1 I *D sg13g2_a221oi_1
*I *407:B1 I *D sg13g2_a21oi_1
*I *406:A I *D sg13g2_nor2_1
*I *501:X O *D sg13g2_buf_1
*CAP
1 *446:A_N 0
2 *458:B 2.60174e-05
3 *361:B 0
4 *448:C 9.4735e-05
5 *428:A_N 0
6 *395:C1 0
7 *407:B1 0.000329188
8 *406:A 0.000199426
9 *501:X 0.000146289
10 *189:131 0.000848738
11 *189:117 0.00163081
12 *189:105 0.000823189
13 *189:101 0.000344026
14 *189:44 0.00148985
15 *189:40 0.00135361
16 *189:32 0.000652365
17 *189:28 0.000677931
18 *189:24 0.000633735
19 *189:18 0.000556076
20 *189:8 0.000858203
21 *406:A *203:29 0.000547044
22 *407:B1 *392:A1 0
23 *407:B1 *407:A1 0
24 *407:B1 *203:29 0.00012862
25 *448:C *448:B 0.000222523
26 *448:C *195:105 0.000143682
27 *458:B *192:77 4.7803e-05
28 *189:24 *409:B1 0.000208747
29 *189:28 *448:B 0.0002851
30 *189:28 *195:25 0.000553748
31 *189:28 *195:82 0.000209643
32 *189:28 *195:105 0.000106392
33 *189:28 *202:45 0
34 *189:28 *202:83 0
35 *189:28 *203:62 0
36 *189:32 *202:34 0
37 *189:32 *202:45 0
38 *189:40 *209:34 0
39 *189:40 *209:45 0
40 *189:40 *210:86 0
41 *189:44 *203:37 0
42 *189:44 *205:74 0
43 *189:117 *191:8 0
44 *189:131 *192:77 0.000804595
45 *189:131 *192:83 7.99298e-05
46 DATA[6] *189:131 0
47 *362:D *189:117 4.78521e-05
48 *380:A2 *189:40 1.54556e-05
49 *393:B *406:A 0
50 *395:B2 *189:40 0
51 *398:C *189:40 0.000401284
52 *408:B1 *407:B1 0
53 *412:A1 *189:28 0.00060711
54 *412:A1 *189:32 0
55 *427:C *189:40 0
56 *446:B *189:105 0
57 *446:B *189:117 0
58 *455:B *189:117 0.000176431
59 *473:B *189:117 0
60 *518:A *407:B1 0.000245579
61 *7:8 *189:117 0.000603292
62 *31:16 *189:44 0.000664188
63 *31:35 *189:44 0.000308828
64 *35:33 *189:131 0
65 *35:41 *189:117 0
66 *35:49 *189:8 0
67 *35:49 *189:18 0
68 *39:8 *189:131 0
69 *39:18 *189:117 0
70 *60:6 *407:B1 0
71 *72:27 *189:101 0
72 *72:35 *189:18 0.000153636
73 *72:50 *448:C 4.77425e-05
74 *72:50 *189:18 0
75 *75:12 *406:A 0
76 *77:8 *407:B1 0
77 *112:12 *189:8 0.000177583
78 *112:12 *189:18 0.000442743
79 *112:12 *189:101 0
80 *113:8 *189:117 0
81 *119:12 *189:105 0.000112826
82 *119:12 *189:117 1.54556e-05
83 *121:23 *189:117 0
84 *121:23 *189:131 0
85 *123:8 *189:18 7.34081e-05
86 *129:16 *189:117 0
87 *152:18 *189:18 0.000446621
88 *152:28 *189:101 0
89 *158:18 *189:44 0
90 *159:43 *189:24 0.000144156
91 *170:8 *189:32 0.000180882
92 *170:14 *189:40 0
93 *174:14 *189:131 0
94 *174:18 *189:131 0
95 *174:64 *458:B 0
96 *174:64 *189:131 0
97 *175:57 *406:A 0.000553625
98 *175:57 *407:B1 0.000369485
99 *179:8 *189:131 0.000126924
100 *182:20 *189:131 4.75881e-05
*RES
1 *501:X *189:8 41.339 
2 *189:8 *189:18 45.1294 
3 *189:18 *189:24 41.4008 
4 *189:24 *189:28 6.5714 
5 *189:28 *189:32 22.0806 
6 *189:32 *189:40 43.6977 
7 *189:40 *189:44 29.1876 
8 *189:44 *406:A 43.3269 
9 *189:44 *407:B1 43.9037 
10 *189:32 *395:C1 20 
11 *189:28 *428:A_N 40 
12 *189:24 *448:C 41.4832 
13 *189:8 *189:101 42.9149 
14 *189:101 *189:105 20.7519 
15 *189:105 *189:117 47.7353 
16 *189:117 *189:131 48.7653 
17 *189:131 *361:B 20 
18 *189:117 *458:B 20.3193 
19 *189:105 *446:A_N 20 
*END

*D_NET *190 0.00885265
*CONN
*I *346:A I *D sg13g2_xor2_1
*I *345:A I *D sg13g2_and2_1
*I *335:A I *D sg13g2_and2_1
*I *336:A I *D sg13g2_nand2_1
*I *337:A I *D sg13g2_xnor2_1
*I *342:A I *D sg13g2_xnor2_1
*I *341:A I *D sg13g2_nand2_1
*I *339:A I *D sg13g2_xor2_1
*I *502:X O *D sg13g2_buf_1
*CAP
1 *346:A 0
2 *345:A 0
3 *335:A 0
4 *336:A 0.000118116
5 *337:A 0.00028681
6 *342:A 0
7 *341:A 0.000248478
8 *339:A 0.000130719
9 *502:X 0.000446704
10 *190:96 0.000261082
11 *190:86 0.00053894
12 *190:51 0.000705503
13 *190:31 0.000355919
14 *190:16 0.000538562
15 *190:14 0.00079455
16 *190:12 0.000772148
17 *190:10 0.00130314
18 *337:A *337:B 0
19 *337:A *203:16 0
20 *341:A *200:108 1.54008e-05
21 *341:A *200:116 0
22 *190:10 *485:A 0.000242055
23 *190:10 *211:16 0
24 *190:12 *199:26 0
25 *190:12 *211:16 0
26 *190:14 *335:B 0
27 *190:14 *199:26 0
28 *190:14 *211:16 0
29 *190:16 *335:B 0
30 *190:16 *339:B 0
31 *190:31 *200:108 0.000194236
32 *190:51 *204:28 0
33 *190:96 *199:16 0.00024881
34 *190:96 *199:26 0.000232086
35 *340:A2 *341:A 0.000339393
36 *340:A2 *190:31 0.000209697
37 *488:CLK *190:86 0
38 *489:RESET_B *336:A 0
39 *492:D *190:10 0
40 *521:A *336:A 4.6793e-05
41 *525:A *190:96 0
42 *24:27 *190:51 0.000502276
43 *29:10 *190:86 0
44 *29:10 *190:96 0
45 *31:12 *190:10 0
46 *31:12 *190:86 0
47 *31:12 *190:96 0
48 *47:12 *190:12 0
49 *131:10 *190:14 0
50 *131:10 *190:16 0
51 *134:18 *339:A 7.82785e-05
52 *134:18 *341:A 0
53 *141:14 *190:10 0
54 *173:24 *190:10 0
55 *173:24 *190:12 0
56 *175:28 *336:A 0.000169743
57 *175:28 *337:A 7.32115e-05
*RES
1 *502:X *190:10 44.2539 
2 *190:10 *190:12 5.2942 
3 *190:12 *190:14 1.5862 
4 *190:14 *190:16 2.575 
5 *190:16 *339:A 41.3673 
6 *190:16 *190:31 21.4008 
7 *190:31 *341:A 22.6162 
8 *190:31 *342:A 20 
9 *190:14 *190:51 43.3475 
10 *190:51 *337:A 42.3381 
11 *190:51 *336:A 41.3647 
12 *190:12 *335:A 40 
13 *190:10 *190:86 22.6986 
14 *190:86 *190:96 42.7192 
15 *190:96 *345:A 20 
16 *190:86 *346:A 20 
*END

*D_NET *191 0.00916357
*CONN
*I *362:A I *D sg13g2_nand4_1
*I *370:B1 I *D sg13g2_a21o_1
*I *353:A I *D sg13g2_xnor2_1
*I *349:A I *D sg13g2_nand2_1
*I *350:A I *D sg13g2_xnor2_1
*I *503:X O *D sg13g2_buf_1
*CAP
1 *362:A 9.40216e-05
2 *370:B1 0
3 *353:A 0
4 *349:A 0.000226806
5 *350:A 0.000207194
6 *503:X 0.000300045
7 *191:57 9.40792e-05
8 *191:26 0.00084049
9 *191:20 0.00110394
10 *191:16 0.00116917
11 *191:8 0.000771703
12 *350:A *196:16 6.48204e-05
13 *350:A *196:24 1.54556e-05
14 *350:A *196:40 0
15 *191:8 *196:46 0.000548462
16 *191:8 *196:61 0.000208797
17 *191:16 *196:46 0.000546459
18 *191:16 *216:14 0
19 *191:20 *353:B 4.78524e-05
20 *191:20 *401:B_N 1.54008e-05
21 *191:20 *216:14 0
22 *191:26 *353:B 1.54008e-05
23 *191:26 *474:A 0
24 *191:26 *196:40 0
25 *191:26 *216:14 0
26 *191:57 *361:A 0.000232807
27 *191:57 *209:14 0
28 DATA[17] *191:8 0.000128991
29 *352:B1 *349:A 0.000306739
30 *352:A1 *350:A 0
31 *370:A2 *191:20 0
32 *370:A1 *191:16 0.000176426
33 *493:D *349:A 0.000338998
34 *494:D *191:20 0
35 *535:A *349:A 0
36 *7:8 *191:8 0
37 *27:20 *350:A 0
38 *27:20 *191:26 0
39 *39:18 *191:8 0.000578941
40 *39:18 *191:16 0.000442045
41 *40:10 *191:20 0.000400189
42 *50:18 *191:26 0
43 *102:20 *191:20 0
44 *129:16 *362:A 9.7025e-05
45 *129:22 *362:A 4.77425e-05
46 *144:21 *349:A 0
47 *144:21 *350:A 0.00012816
48 *149:8 *191:16 0
49 *154:8 *362:A 1.54008e-05
50 *161:8 *191:57 0
51 *172:48 *191:20 0
52 *172:48 *191:57 0
53 *176:8 *191:8 0
54 *189:117 *191:8 0
*RES
1 *503:X *191:8 44.7998 
2 *191:8 *191:16 24.4776 
3 *191:16 *191:20 6.7568 
4 *191:20 *191:26 23.9758 
5 *191:26 *350:A 42.369 
6 *191:26 *349:A 42.6986 
7 *191:20 *353:A 20 
8 *191:16 *191:57 41.0918 
9 *191:57 *370:B1 20 
10 *191:8 *362:A 40.9682 
*END

*D_NET *192 0.0164272
*CONN
*I *330:A I *D sg13g2_inv_1
*I *458:A I *D sg13g2_nor3_1
*I *456:A I *D sg13g2_nor2_1
*I *474:A I *D sg13g2_nand2_1
*I *353:B I *D sg13g2_xnor2_1
*I *473:A I *D sg13g2_nand2_1
*I *434:A I *D sg13g2_or4_1
*I *414:A I *D sg13g2_nand3_1
*I *504:X O *D sg13g2_buf_1
*CAP
1 *330:A 0
2 *458:A 2.77263e-05
3 *456:A 0
4 *474:A 0.000451461
5 *353:B 8.91921e-05
6 *473:A 3.3184e-05
7 *434:A 6.94898e-05
8 *414:A 0
9 *504:X 3.34444e-05
10 *192:123 0.000437442
11 *192:83 0.00122385
12 *192:77 0.00127253
13 *192:67 0.000978991
14 *192:52 0.000966516
15 *192:48 0.00114562
16 *192:35 0.000726623
17 *192:22 0.000299562
18 *192:12 0.00153633
19 *192:8 0.000749854
20 *434:A *515:A 0
21 *474:A *216:10 4.7154e-05
22 *474:A *216:14 0
23 *192:12 *519:A 0
24 *192:12 *196:46 0.000176236
25 *192:22 *205:33 0
26 *192:22 *211:80 7.47216e-05
27 *192:35 *205:33 0
28 *192:35 *205:57 0
29 *192:35 *209:22 5.27974e-05
30 *192:35 *209:24 0.000529496
31 *192:35 *209:34 0.000280508
32 *192:48 *196:46 5.18521e-05
33 *192:48 *209:18 0
34 *192:52 *215:8 7.51285e-05
35 *192:67 *196:61 0
36 *192:67 *215:8 0.000437385
37 *192:83 *212:8 0
38 *192:123 *409:B1 4.78524e-05
39 *192:123 *209:18 0
40 *192:123 *209:91 0
41 DATA[17] *192:67 0.000144899
42 DATA[6] *192:77 0.000273622
43 *370:A1 *192:8 4.77425e-05
44 *370:A1 *192:123 0
45 *404:A1 *192:12 0
46 *404:B1 *192:35 0
47 *415:B1 *192:22 1.54285e-05
48 *420:A2 *434:A 0
49 *422:B *434:A 0
50 *434:B *434:A 4.77425e-05
51 *458:B *192:77 4.7803e-05
52 *473:B *473:A 0
53 *474:B *474:A 0
54 *524:A *192:67 4.77425e-05
55 *535:A *474:A 0
56 *13:8 *192:67 0
57 *13:8 *192:77 0
58 *23:8 *192:52 0
59 *27:14 *192:83 0
60 *31:45 *192:123 0
61 *35:41 *473:A 4.77425e-05
62 *37:12 *192:83 0
63 *39:8 *192:83 0
64 *40:10 *353:B 0
65 *41:81 *192:123 0
66 *42:14 *474:A 0
67 *50:18 *353:B 0.000181301
68 *50:18 *192:83 0.000371586
69 *70:27 *192:52 0
70 *70:27 *192:67 0
71 *72:12 *192:12 0.000332997
72 *72:12 *192:48 7.30101e-05
73 *90:8 *192:35 0
74 *101:18 *192:48 0.000180722
75 *101:18 *192:123 0.000129661
76 *102:12 *192:35 0.00144337
77 *113:18 *192:83 0
78 *162:19 *192:35 0
79 *174:18 *192:83 0
80 *174:35 *192:83 0
81 *174:64 *192:67 0
82 *176:8 *192:67 0.000124547
83 *180:8 *192:67 8.02105e-05
84 *182:20 *192:77 7.43655e-05
85 *186:8 *192:12 0
86 *187:33 *474:A 0
87 *189:131 *192:77 0.000804595
88 *189:131 *192:83 7.99298e-05
89 *191:20 *353:B 4.78524e-05
90 *191:26 *353:B 1.54008e-05
91 *191:26 *474:A 0
*RES
1 *504:X *192:8 40.3193 
2 *192:8 *192:12 25.047 
3 *192:12 *192:22 43.3629 
4 *192:22 *414:A 20 
5 *192:12 *192:35 49.3215 
6 *192:35 *434:A 20.7519 
7 *192:8 *192:48 21.5347 
8 *192:48 *192:52 24.3054 
9 *192:52 *473:A 40.3193 
10 *192:52 *192:67 23.8487 
11 *192:67 *192:77 46.6744 
12 *192:77 *192:83 27.3439 
13 *192:83 *353:B 41.1639 
14 *192:83 *474:A 43.1039 
15 *192:77 *456:A 20 
16 *192:67 *458:A 20.3502 
17 *192:48 *192:123 44.7483 
18 *192:123 *330:A 20 
*END

*D_NET *193 0.00672878
*CONN
*I *475:B1 I *D sg13g2_o21ai_1
*I *453:A1 I *D sg13g2_o21ai_1
*I *460:A I *D sg13g2_nor3_1
*I *471:B1 I *D sg13g2_a21oi_1
*I *461:B I *D sg13g2_or2_1
*I *465:B1 I *D sg13g2_a21oi_1
*I *469:A I *D sg13g2_nor2_1
*I *450:A I *D sg13g2_nand3_1
*I *505:X O *D sg13g2_buf_1
*CAP
1 *475:B1 2.64961e-05
2 *453:A1 3.91263e-05
3 *460:A 0
4 *471:B1 0.000131935
5 *461:B 7.40063e-05
6 *465:B1 2.90527e-05
7 *469:A 0.000545103
8 *450:A 3.17796e-05
9 *505:X 0.00011496
10 *193:52 0.000171563
11 *193:39 0.000812221
12 *193:28 0.000438851
13 *193:24 0.000774943
14 *193:18 0.000769135
15 *193:12 0.00052171
16 *193:10 0.000289456
17 *461:B *195:105 0.000159926
18 *461:B *208:12 0
19 *469:A *195:36 0
20 *469:A *195:105 0.000126358
21 *469:A *208:12 0
22 *471:B1 *198:84 0
23 *193:10 *505:A 0
24 *193:12 *505:A 0
25 *193:24 *196:91 0
26 *193:39 *472:A 0.00011211
27 *193:52 *195:105 0.000212127
28 *451:B1 *450:A 0
29 *462:B1 *193:24 1.54008e-05
30 *465:A2 *193:24 0
31 *465:A2 *193:39 0.000272878
32 *468:B1 *469:A 0
33 *469:B *469:A 0
34 *470:B_N *193:24 0.000144
35 *501:A *193:24 0
36 *13:8 *475:B1 0
37 *13:8 *193:10 4.77425e-05
38 *23:8 *193:10 0
39 *23:8 *193:12 0
40 *35:41 *193:18 0
41 *35:41 *193:24 0.000144722
42 *79:41 *469:A 0.000502376
43 *112:20 *453:A1 1.54556e-05
44 *119:12 *453:A1 0
45 *119:12 *193:18 2.14736e-05
46 *123:8 *193:28 0
47 *125:14 *469:A 0
48 *127:14 *475:B1 4.77699e-05
49 *127:29 *193:24 0.000112558
50 *127:29 *193:28 0
51 *151:22 *193:18 0
52 *159:43 *193:39 0
53 *174:64 *453:A1 2.35424e-05
54 *174:64 *193:18 0
55 *182:8 *471:B1 0
56 *182:8 *193:28 0
57 *185:12 *469:A 0
58 *185:12 *193:52 0
*RES
1 *505:X *193:10 41.1639 
2 *193:10 *193:12 1.0918 
3 *193:12 *193:18 22.6471 
4 *193:18 *193:24 24.3466 
5 *193:24 *193:28 21.8334 
6 *193:28 *450:A 20.3502 
7 *193:28 *193:39 22.0497 
8 *193:39 *469:A 46.6023 
9 *193:39 *193:52 1.0918 
10 *193:52 *465:B1 40.3193 
11 *193:52 *461:B 41.1639 
12 *193:24 *471:B1 41.0918 
13 *193:18 *460:A 20 
14 *193:12 *453:A1 40.4764 
15 *193:10 *475:B1 40.3193 
*END

*D_NET *194 0.0118893
*CONN
*I *472:A I *D sg13g2_nor2_1
*I *505:A I *D sg13g2_buf_1
*I *457:B I *D sg13g2_nor2_1
*I *398:A I *D sg13g2_nor4_1
*I *506:X O *D sg13g2_buf_1
*CAP
1 *472:A 6.25044e-05
2 *505:A 0.000193233
3 *457:B 0
4 *398:A 0
5 *506:X 3.02081e-05
6 *194:61 0.000937965
7 *194:37 0.000664832
8 *194:22 0.00255873
9 *194:10 0.00220605
10 *194:6 0.00102459
11 *505:A *541:A 8.02595e-05
12 *194:22 *209:34 0
13 *194:22 *210:86 8.00842e-05
14 *194:22 *210:107 0
15 *194:22 *211:114 0.000390438
16 *194:37 *513:A 0.000179389
17 *194:37 *199:67 0
18 *194:37 *201:10 0
19 *194:37 *202:6 0
20 *194:37 *203:37 0.000180882
21 *194:37 *210:72 0.000181297
22 *194:37 *210:86 3.23417e-05
23 *194:61 *537:A 0
24 *194:61 *538:A 0.000209086
25 *194:61 *541:A 0
26 *194:61 *198:69 0.000286948
27 *194:61 *198:84 0.000446403
28 *368:B *194:22 0
29 *376:B1 *194:22 0
30 *382:A2 *194:37 0.000233249
31 *398:B *194:22 0.000176641
32 *398:B *194:37 1.54008e-05
33 *425:A2 *194:37 0
34 *443:A1 *194:37 0
35 *443:A2 *194:37 0
36 *443:B1 *194:37 0
37 *460:C *194:61 0
38 *464:A2 *194:61 0
39 *3:10 *194:61 0.000111716
40 *13:8 *505:A 8.02595e-05
41 *13:8 *194:61 0
42 *31:35 *194:22 0
43 *39:46 *505:A 0
44 *39:46 *194:10 0.000112089
45 *39:46 *194:22 0.000280972
46 *39:46 *194:61 4.77699e-05
47 *65:18 *194:22 0
48 *65:33 *194:22 2.17891e-05
49 *80:8 *194:61 0.000233917
50 *97:29 *194:22 0
51 *119:12 *194:22 0
52 *125:14 *194:61 0
53 *127:14 *194:10 0.000110983
54 *127:14 *194:22 0
55 *129:8 *194:22 0
56 *158:18 *194:22 0
57 *158:46 *194:22 0
58 *159:43 *472:A 0.00011211
59 *164:21 *194:22 0
60 *171:8 *194:22 0
61 *171:8 *194:37 0.000495088
62 *174:64 *194:22 0
63 *178:12 *194:22 0
64 *181:8 *505:A 0
65 *182:8 *194:61 0
66 *182:12 *194:61 0
67 *193:10 *505:A 0
68 *193:12 *505:A 0
69 *193:39 *472:A 0.00011211
*RES
1 *506:X *194:6 20.3502 
2 *194:6 *194:10 21.1845 
3 *194:10 *194:22 36.8611 
4 *194:22 *398:A 20 
5 *194:22 *194:37 47.6632 
6 *194:37 *457:B 20 
7 *194:10 *505:A 41.8746 
8 *194:6 *194:61 49.2247 
9 *194:61 *472:A 20.7519 
*END

*D_NET *195 0.0136835
*CONN
*I *461:A I *D sg13g2_or2_1
*I *449:B1 I *D sg13g2_o21ai_1
*I *442:B I *D sg13g2_nand2b_1
*I *445:A1 I *D sg13g2_o21ai_1
*I *396:A_N I *D sg13g2_nand2b_1
*I *372:B I *D sg13g2_nand2b_1
*I *367:B I *D sg13g2_nand2_1
*I *413:B I *D sg13g2_nand4_1
*I *507:X O *D sg13g2_buf_1
*CAP
1 *461:A 0
2 *449:B1 3.42237e-05
3 *442:B 8.21849e-05
4 *445:A1 1.38632e-05
5 *396:A_N 0.000114936
6 *372:B 0.00025624
7 *367:B 0
8 *413:B 0
9 *507:X 0.000135209
10 *195:105 0.000568879
11 *195:82 0.00066318
12 *195:48 0.00056384
13 *195:46 0.00102149
14 *195:36 0.00175933
15 *195:25 0.00122325
16 *195:19 0.00110884
17 *195:6 0.000822907
18 *372:B *199:26 1.54008e-05
19 *372:B *199:33 0.000129471
20 *372:B *199:43 0.00016179
21 *372:B *206:75 0
22 *396:A_N *199:56 1.54008e-05
23 *396:A_N *199:67 3.24516e-05
24 *449:B1 *409:B1 0
25 *195:6 *413:A 4.77425e-05
26 *195:19 *413:A 4.77425e-05
27 *195:19 *203:62 0.000177295
28 *195:25 *202:83 0
29 *195:25 *207:118 0
30 *195:36 *209:60 0.000926908
31 *195:46 *364:B 0
32 *195:46 *199:81 8.00842e-05
33 *195:46 *199:96 3.23417e-05
34 *195:46 *206:88 0
35 *195:48 *199:67 0
36 *195:48 *206:75 0
37 *195:48 *206:88 0
38 *195:105 *409:B1 1.55212e-05
39 *195:105 *448:B 0
40 *195:105 *198:69 0
41 *368:B *195:19 0.00027267
42 *412:B1 *195:19 0
43 *413:D *195:19 0
44 *433:A2 *195:6 0
45 *440:A1 *195:46 8.00842e-05
46 *442:A_N *442:B 0
47 *444:A2 *195:46 1.54008e-05
48 *445:B1 *195:46 0
49 *445:A2 *195:46 0
50 *445:A2 *195:48 0
51 *448:C *195:105 0.000143682
52 *461:B *195:105 0.000159926
53 *466:B1 *442:B 0.000112519
54 *468:B1 *195:25 3.23417e-05
55 *468:B1 *195:36 8.02763e-05
56 *469:A *195:36 0
57 *469:A *195:105 0.000126358
58 *469:B *195:36 0
59 *35:49 *195:19 0
60 *79:6 *449:B1 1.54008e-05
61 *79:12 *195:25 0.000287672
62 *79:12 *195:82 0.000178206
63 *81:6 *195:19 0
64 *82:12 *195:6 0
65 *107:10 *195:46 0
66 *125:14 *195:105 0.000499241
67 *130:10 *195:46 4.78195e-05
68 *130:38 *195:46 0.0001448
69 *152:18 *195:19 0
70 *155:6 *195:46 8.02079e-05
71 *155:28 *195:36 0
72 *155:28 *195:46 0
73 *155:39 *195:36 0
74 *157:8 *195:36 0
75 *158:8 *195:25 0.000274452
76 *159:43 *195:105 0
77 *189:28 *195:25 0.000553748
78 *189:28 *195:82 0.000209643
79 *189:28 *195:105 0.000106392
80 *193:52 *195:105 0.000212127
*RES
1 *507:X *195:6 21.1845 
2 *195:6 *413:B 20 
3 *195:6 *195:19 26.6126 
4 *195:19 *195:25 24.6247 
5 *195:25 *367:B 20 
6 *195:25 *195:36 29.6352 
7 *195:36 *195:46 27.361 
8 *195:46 *195:48 1.6171 
9 *195:48 *372:B 22.4823 
10 *195:48 *396:A_N 21.4111 
11 *195:46 *445:A1 20.3502 
12 *195:36 *442:B 40.9682 
13 *195:19 *195:82 1.0918 
14 *195:82 *449:B1 40.3193 
15 *195:82 *195:105 47.6529 
16 *195:105 *461:A 40 
*END

*D_NET *196 0.0146775
*CONN
*I *507:A I *D sg13g2_buf_1
*I *465:A1 I *D sg13g2_a21oi_1
*I *471:A1 I *D sg13g2_a21oi_1
*I *475:A1 I *D sg13g2_o21ai_1
*I *477:A I *D sg13g2_nand3_1
*I *359:B I *D sg13g2_or2_1
*I *350:B I *D sg13g2_xnor2_1
*I *349:B I *D sg13g2_nand2_1
*I *508:X O *D sg13g2_buf_1
*CAP
1 *507:A 0
2 *465:A1 0
3 *471:A1 0
4 *475:A1 0
5 *477:A 3.27584e-05
6 *359:B 2.60565e-05
7 *350:B 0
8 *349:B 0
9 *508:X 5.58542e-05
10 *196:119 0.00017237
11 *196:106 0.000429934
12 *196:91 0.00066983
13 *196:85 0.000703468
14 *196:70 0.000624163
15 *196:61 0.000486413
16 *196:46 0.000820483
17 *196:42 0.00148354
18 *196:40 0.00135551
19 *196:24 0.000467722
20 *196:16 0.00086959
21 *196:6 0.00100342
22 *196:70 *543:A 0
23 *196:106 *198:84 0
24 *196:106 *213:10 1.54008e-05
25 *196:119 *211:106 4.77425e-05
26 DATA[2] *196:24 0
27 *348:B1 *196:6 6.46579e-05
28 *348:B1 *196:16 0.000209838
29 *350:A *196:16 6.48204e-05
30 *350:A *196:24 1.54556e-05
31 *350:A *196:40 0
32 *351:B *196:24 0.000274189
33 *351:A *196:24 0
34 *352:B1 *196:16 0
35 *352:A1 *196:16 0
36 *352:A1 *196:24 0
37 *455:B *196:46 0
38 *460:C *196:91 0
39 *462:A2 *196:106 0.000143171
40 *462:B1 *196:106 0
41 *464:A2 *196:91 0
42 *464:A2 *196:106 0
43 *465:A2 *196:106 0.000208057
44 *501:A *196:91 4.79124e-05
45 *508:A *196:40 0
46 *524:A *196:61 4.77425e-05
47 *13:8 *196:70 0
48 *27:20 *196:16 0
49 *35:41 *359:B 4.77425e-05
50 *37:12 *196:40 0
51 *40:10 *196:40 2.1786e-05
52 *50:12 *196:42 0
53 *50:12 *196:119 0
54 *50:18 *196:40 0
55 *70:27 *196:46 0
56 *70:27 *196:61 0
57 *70:44 *196:85 0
58 *72:12 *196:46 0
59 *72:23 *196:46 0
60 *102:12 *196:119 0
61 *112:12 *196:85 0
62 *127:14 *196:70 1.54282e-05
63 *127:14 *196:85 0.000387477
64 *127:29 *196:91 0.000112558
65 *144:21 *196:16 0.000112119
66 *144:21 *196:24 6.48097e-05
67 *151:12 *359:B 4.77425e-05
68 *151:12 *196:61 0
69 *172:15 *196:40 0
70 *173:24 *196:16 0.000234224
71 *173:24 *196:40 0
72 *174:64 *477:A 0
73 *174:64 *196:61 0
74 *174:64 *196:70 0.000209939
75 *174:64 *196:85 0.000351051
76 *178:24 *196:24 0
77 *180:8 *196:61 4.77425e-05
78 *186:8 *196:46 7.31628e-05
79 *186:12 *196:42 0.0010798
80 *191:8 *196:46 0.000548462
81 *191:8 *196:61 0.000208797
82 *191:16 *196:46 0.000546459
83 *191:26 *196:40 0
84 *192:12 *196:46 0.000176236
85 *192:48 *196:46 5.18521e-05
86 *192:67 *196:61 0
87 *193:24 *196:91 0
*RES
1 *508:X *196:6 20.5356 
2 *196:6 *196:16 44.3569 
3 *196:16 *196:24 44.3466 
4 *196:24 *349:B 20 
5 *196:16 *350:B 20 
6 *196:6 *196:40 45.047 
7 *196:40 *196:42 7.4572 
8 *196:42 *196:46 25.7886 
9 *196:46 *359:B 40.3193 
10 *196:46 *196:61 22.7089 
11 *196:61 *477:A 20.3502 
12 *196:61 *196:70 1.8334 
13 *196:70 *475:A1 20 
14 *196:70 *196:85 44.944 
15 *196:85 *196:91 42.266 
16 *196:91 *471:A1 20 
17 *196:91 *196:106 43.7698 
18 *196:106 *465:A1 20 
19 *196:42 *196:119 41.5038 
20 *196:119 *507:A 20 
*END

*D_NET *197 0.000409942
*CONN
*I *537:A I *D sg13g2_buf_1
*I *467:Y O *D sg13g2_nand2_1
*CAP
1 *537:A 0.00018107
2 *467:Y 0.00018107
3 DATA[12] *537:A 0
4 *3:10 *537:A 0
5 *125:14 *537:A 4.78028e-05
6 *194:61 *537:A 0
*RES
1 *467:Y *537:A 41.8334 
*END

*D_NET *198 0.00878717
*CONN
*I *463:A1 I *D sg13g2_a21oi_1
*I *464:A1 I *D sg13g2_a21oi_1
*I *462:A1 I *D sg13g2_a21oi_1
*I *360:B I *D sg13g2_nor2_1
*I *367:A I *D sg13g2_nand2_1
*I *449:A1 I *D sg13g2_o21ai_1
*I *451:A1 I *D sg13g2_a21oi_1
*I *413:A I *D sg13g2_nand4_1
*I *509:X O *D sg13g2_buf_1
*CAP
1 *463:A1 0.000295977
2 *464:A1 0
3 *462:A1 0.00010616
4 *360:B 9.4122e-05
5 *367:A 0.000307255
6 *449:A1 0
7 *451:A1 0
8 *413:A 0.000361829
9 *509:X 0
10 *198:84 0.000550972
11 *198:69 0.000903088
12 *198:47 0.00053516
13 *198:45 0.000735896
14 *198:36 0.000493427
15 *198:25 0.000418337
16 *198:6 0.000827801
17 *198:4 0.000480882
18 *360:B *360:A 0
19 *367:A *202:83 0
20 *413:A *211:106 0.000112536
21 *463:A1 *538:A 0.000223378
22 *463:A1 *213:10 1.54008e-05
23 *198:36 *203:62 4.77348e-05
24 *198:47 *202:94 0
25 *198:69 *409:B1 0
26 *198:69 *202:94 0
27 *198:84 *538:A 0.00014382
28 DATA[13] *463:A1 0
29 *370:A1 *413:A 0
30 *370:A1 *198:6 8.0216e-05
31 *370:A1 *198:36 0.000143171
32 *462:A2 *462:A1 0.00014395
33 *462:B1 *462:A1 0
34 *463:B1 *463:A1 0.000135712
35 *464:A2 *463:A1 0
36 *464:A2 *198:84 0.000138044
37 *468:A2 *367:A 0
38 *468:B1 *367:A 4.77425e-05
39 *471:B1 *198:84 0
40 *532:A *463:A1 0
41 *35:49 *413:A 4.79124e-05
42 *35:49 *198:6 0
43 *79:6 *198:36 1.54008e-05
44 *79:6 *198:45 0.00014395
45 *80:8 *198:69 0
46 *82:12 *413:A 1.54008e-05
47 *124:6 *463:A1 0
48 *125:14 *367:A 0
49 *125:14 *198:47 0
50 *125:14 *198:69 0
51 *129:8 *198:25 0
52 *152:28 *198:25 2.16289e-05
53 *158:8 *367:A 0.000112511
54 *159:43 *198:36 0.00025892
55 *171:8 *198:25 0
56 *174:64 *198:25 0
57 *194:61 *198:69 0.000286948
58 *194:61 *198:84 0.000446403
59 *195:6 *413:A 4.77425e-05
60 *195:19 *413:A 4.77425e-05
61 *195:105 *198:69 0
62 *196:106 *198:84 0
*RES
1 *509:X *198:4 20 
2 *198:4 *198:6 0.5356 
3 *198:6 *413:A 23.502 
4 *198:6 *198:25 43.0694 
5 *198:25 *451:A1 20 
6 *198:4 *198:36 4.2642 
7 *198:36 *449:A1 20 
8 *198:36 *198:45 20.9682 
9 *198:45 *198:47 1.0918 
10 *198:47 *367:A 42.5544 
11 *198:47 *360:B 40.5986 
12 *198:45 *198:69 5.047 
13 *198:69 *462:A1 40.9682 
14 *198:69 *198:84 23.0488 
15 *198:84 *464:A1 20 
16 *198:84 *463:A1 23.1724 
*END

*D_NET *199 0.01151
*CONN
*I *345:B I *D sg13g2_and2_1
*I *346:B I *D sg13g2_xor2_1
*I *457:A I *D sg13g2_nor2_1
*I *440:B1 I *D sg13g2_o21ai_1
*I *441:A I *D sg13g2_nor4_1
*I *396:B I *D sg13g2_nand2b_1
*I *436:A I *D sg13g2_nor3_1
*I *372:A_N I *D sg13g2_nand2b_1
*I *510:X O *D sg13g2_buf_1
*CAP
1 *345:B 0
2 *346:B 2.60565e-05
3 *457:A 0
4 *440:B1 0
5 *441:A 0
6 *396:B 0
7 *436:A 0
8 *372:A_N 0
9 *510:X 0.000377678
10 *199:96 0.000135747
11 *199:81 0.00044483
12 *199:67 0.000884041
13 *199:56 0.000813735
14 *199:43 0.000176605
15 *199:33 0.000489762
16 *199:26 0.00185159
17 *199:16 0.00194393
18 *199:12 0.000518338
19 *199:26 *389:A 0
20 *199:26 *201:45 0
21 *199:26 *211:37 0.000111762
22 *199:26 *211:48 0.000272087
23 *199:43 *201:71 3.51931e-05
24 *199:81 *205:84 0.000395043
25 *199:96 *364:B 4.78195e-05
26 *348:B1 *199:12 0
27 *372:B *199:26 1.54008e-05
28 *372:B *199:33 0.000129471
29 *372:B *199:43 0.00016179
30 *389:B *199:26 0
31 *396:A_N *199:56 1.54008e-05
32 *396:A_N *199:67 3.24516e-05
33 *417:A2 *199:26 0
34 *419:A2 *199:26 0
35 *419:B1 *199:26 0
36 *425:A2 *199:26 8.02102e-05
37 *425:A2 *199:33 8.00842e-05
38 *425:A2 *199:56 0
39 *441:B *199:81 1.54008e-05
40 *441:B *199:96 4.77425e-05
41 *443:B1 *199:81 0
42 *444:B1 *199:81 0
43 *444:A2 *199:81 0
44 *445:B1 *199:67 0
45 *445:B1 *199:81 0
46 *445:A2 *199:67 0
47 *466:B1 *199:81 0.000144058
48 *466:A1 *199:81 0.000317069
49 *508:A *199:12 7.6498e-05
50 *510:A *199:12 0.000110889
51 *518:A *199:12 0
52 *525:A *199:12 0
53 *28:10 *199:26 4.7526e-05
54 *31:12 *346:B 4.77425e-05
55 *33:26 *199:26 0
56 *41:51 *199:43 0.000283805
57 *44:8 *199:26 0
58 *47:12 *199:26 0
59 *53:34 *199:81 7.54955e-05
60 *65:10 *199:56 0
61 *65:10 *199:67 0
62 *71:8 *199:96 7.30101e-05
63 *71:17 *199:96 0.000179389
64 *141:14 *346:B 4.77425e-05
65 *155:17 *199:96 0.000127853
66 *162:6 *199:26 0
67 *168:16 *199:43 0.000283389
68 *172:15 *199:12 0
69 *173:24 *199:26 0
70 *190:12 *199:26 0
71 *190:14 *199:26 0
72 *190:96 *199:16 0.00024881
73 *190:96 *199:26 0.000232086
74 *194:37 *199:67 0
75 *195:46 *199:81 8.00842e-05
76 *195:46 *199:96 3.23417e-05
77 *195:48 *199:67 0
*RES
1 *510:X *199:12 43.5844 
2 *199:12 *199:16 1.6583 
3 *199:16 *199:26 36.5727 
4 *199:26 *372:A_N 20 
5 *199:26 *199:33 0.9682 
6 *199:33 *199:43 42.8119 
7 *199:43 *436:A 20 
8 *199:33 *199:56 2.6986 
9 *199:56 *396:B 20 
10 *199:56 *199:67 5.6856 
11 *199:67 *199:81 44.4702 
12 *199:81 *441:A 20 
13 *199:81 *199:96 41.7304 
14 *199:96 *440:B1 20 
15 *199:67 *457:A 20 
16 *199:16 *346:B 40.3193 
17 *199:12 *345:B 40 
*END

*D_NET *200 0.0154807
*CONN
*I *342:B I *D sg13g2_xnor2_1
*I *341:B I *D sg13g2_nand2_1
*I *361:A I *D sg13g2_nor2_1
*I *401:B_N I *D sg13g2_nor2b_1
*I *392:A1 I *D sg13g2_a21oi_1
*I *400:A1 I *D sg13g2_o21ai_1
*I *405:A_N I *D sg13g2_nand2b_1
*I *389:A I *D sg13g2_nor3_1
*I *511:X O *D sg13g2_buf_1
*CAP
1 *342:B 0
2 *341:B 0
3 *361:A 0.000774965
4 *401:B_N 2.90123e-05
5 *392:A1 0.000170292
6 *400:A1 0.000211431
7 *405:A_N 3.08544e-05
8 *389:A 0.000117117
9 *511:X 0
10 *200:116 0.000251375
11 *200:108 0.00062975
12 *200:76 0.00140427
13 *200:57 0.00095773
14 *200:42 0.000517703
15 *200:31 0.000705241
16 *200:18 0.000960451
17 *200:14 0.000793368
18 *200:4 0.00088367
19 *392:A1 *203:29 0.000178388
20 *401:B_N *216:14 4.77425e-05
21 *405:A_N *207:20 4.77425e-05
22 *200:14 *479:A 0
23 *200:14 *511:A 0
24 *200:14 *206:6 0
25 *200:14 *207:55 0
26 *200:18 *206:14 0.000444933
27 *200:18 *207:34 0
28 *200:18 *210:23 0
29 *200:31 *204:18 0
30 *200:31 *207:20 4.7475e-05
31 *200:31 *207:34 1.53326e-05
32 *200:31 *211:76 0
33 *200:42 *203:29 0
34 *200:42 *207:20 0
35 *200:42 *207:34 7.30101e-05
36 *200:57 *203:29 0
37 *200:57 *207:20 0
38 *200:76 *207:20 0
39 *338:A2 *200:14 1.54008e-05
40 *341:A *200:108 1.54008e-05
41 *341:A *200:116 0
42 *371:A *361:A 0.000651296
43 *371:A *200:76 0.000545679
44 *392:A2 *392:A1 1.54008e-05
45 *393:B *400:A1 0.000111432
46 *400:A2 *400:A1 4.7803e-05
47 *401:A *200:76 0
48 *407:B1 *392:A1 0
49 *417:A2 *389:A 1.54008e-05
50 *425:A1 *200:31 0
51 *478:B *200:108 0
52 *478:A *200:108 0
53 *523:A *200:14 0.000207506
54 *41:16 *200:14 0
55 *56:19 *200:18 0.000128248
56 *56:19 *200:31 0.00111667
57 *56:59 *392:A1 4.75613e-05
58 *56:59 *400:A1 3.58804e-05
59 *57:8 *389:A 0.000176537
60 *57:12 *200:31 0
61 *74:8 *200:42 7.43655e-05
62 *74:8 *200:57 0.000178198
63 *77:8 *200:76 0.000657477
64 *91:18 *200:31 0
65 *134:8 *200:14 0
66 *134:8 *200:108 7.74704e-05
67 *134:18 *200:108 0.000306794
68 *134:18 *200:116 0.000274643
69 *153:8 *361:A 0
70 *154:29 *361:A 0.000888431
71 *158:26 *400:A1 0.000111657
72 *161:8 *200:76 0
73 *172:48 *361:A 0
74 *174:18 *361:A 0
75 *175:10 *200:14 4.71858e-05
76 *190:31 *200:108 0.000194236
77 *191:20 *401:B_N 1.54008e-05
78 *191:57 *361:A 0.000232807
79 *199:26 *389:A 0
*RES
1 *511:X *200:4 20 
2 *200:4 *200:14 45.2839 
3 *200:14 *200:18 23.5638 
4 *200:18 *389:A 41.1845 
5 *200:18 *200:31 6.8186 
6 *200:31 *405:A_N 40.3193 
7 *200:31 *200:42 1.0918 
8 *200:42 *400:A1 42.0703 
9 *200:42 *200:57 2.0806 
10 *200:57 *392:A1 42.3999 
11 *200:57 *200:76 6.5302 
12 *200:76 *401:B_N 40.3193 
13 *200:76 *361:A 48.7653 
14 *200:4 *200:108 4.5732 
15 *200:108 *200:116 42.8634 
16 *200:116 *341:B 20 
17 *200:108 *342:B 20 
*END

*D_NET *201 0.00839955
*CONN
*I *380:B1 I *D sg13g2_a21oi_1
*I *377:B I *D sg13g2_nand2b_1
*I *421:A1 I *D sg13g2_o21ai_1
*I *402:B1 I *D sg13g2_o21ai_1
*I *438:A I *D sg13g2_xor2_1
*I *417:B1 I *D sg13g2_o21ai_1
*I *418:B1 I *D sg13g2_a21o_1
*I *420:B1 I *D sg13g2_o21ai_1
*I *512:X O *D sg13g2_buf_1
*CAP
1 *380:B1 0.000212027
2 *377:B 0
3 *421:A1 0
4 *402:B1 0.000503717
5 *438:A 0
6 *417:B1 0
7 *418:B1 0
8 *420:B1 0
9 *512:X 0.000663725
10 *201:71 0.0010105
11 *201:45 0.000300486
12 *201:35 0.00032849
13 *201:33 0.000774293
14 *201:20 0.000448141
15 *201:18 0.000312312
16 *201:14 0.000202422
17 *201:10 0.000550445
18 *380:B1 *512:A 0
19 *380:B1 *202:17 0.000174364
20 *380:B1 *209:34 0
21 *380:B1 *209:45 0
22 *402:B1 *364:B 0
23 *402:B1 *386:A1 0
24 *402:B1 *402:A1 1.54556e-05
25 *402:B1 *402:A2 1.54556e-05
26 *402:B1 *439:A 8.0216e-05
27 *402:B1 *205:96 0
28 *201:10 *513:A 4.77425e-05
29 *201:10 *202:6 0.000143002
30 *201:10 *209:34 0
31 *201:10 *210:78 0
32 *201:33 *420:A1 0.000287256
33 *201:33 *206:71 0.000235055
34 *201:35 *207:55 0
35 *201:45 *206:71 0
36 *201:71 *436:B 8.0216e-05
37 *201:71 *206:75 0
38 *201:71 *207:55 7.33256e-05
39 *201:71 *210:38 2.14736e-05
40 *201:71 *210:57 0.000248092
41 *377:A_N *201:14 8.00842e-05
42 *378:A *402:B1 0.000274321
43 *382:B1 *201:10 0
44 *383:A2 *201:10 0
45 *417:A1 *201:45 8.00842e-05
46 *417:A2 *201:45 0.000209807
47 *418:A1 *201:45 8.02105e-05
48 *419:A1 *201:45 0.000112656
49 *420:A2 *201:45 0
50 *421:A2 *201:18 0
51 *421:A2 *201:20 0
52 *437:A *402:B1 3.24568e-05
53 *437:A *201:71 0.000144258
54 *437:B *201:71 0
55 *438:B *402:B1 8.87448e-05
56 *438:B *201:71 0.000144258
57 *439:C *402:B1 0
58 *443:A2 *380:B1 0
59 *41:51 *201:33 0
60 *65:10 *201:20 0
61 *65:18 *201:10 0.000389263
62 *65:18 *201:14 0
63 *89:8 *201:18 0
64 *89:8 *201:20 0
65 *130:10 *201:71 0
66 *162:19 *201:33 0
67 *168:12 *402:B1 0
68 *168:12 *201:71 0
69 *168:16 *201:33 0
70 *194:37 *201:10 0
71 *199:26 *201:45 0
72 *199:43 *201:71 3.51931e-05
*RES
1 *512:X *201:10 44.532 
2 *201:10 *201:14 20.9682 
3 *201:14 *201:18 20.8446 
4 *201:18 *201:20 1.8334 
5 *201:20 *420:B1 40 
6 *201:20 *201:33 23.1415 
7 *201:33 *201:35 0.3193 
8 *201:35 *201:45 43.0282 
9 *201:45 *418:B1 20 
10 *201:35 *417:B1 20 
11 *201:33 *201:71 45.7783 
12 *201:71 *438:A 20 
13 *201:71 *402:B1 25.3972 
14 *201:18 *421:A1 40 
15 *201:14 *377:B 20 
16 *512:X *380:B1 42.2145 
*END

*D_NET *202 0.0132856
*CONN
*I *409:B1 I *D sg13g2_o21ai_1
*I *410:A I *D sg13g2_nor2_1
*I *360:A I *D sg13g2_nor2_1
*I *366:A I *D sg13g2_nand2_1
*I *427:A I *D sg13g2_nand3_1
*I *395:A1 I *D sg13g2_a221oi_1
*I *439:A I *D sg13g2_nor3_1
*I *512:A I *D sg13g2_buf_1
*I *513:X O *D sg13g2_buf_1
*CAP
1 *409:B1 0.000849645
2 *410:A 0.00014742
3 *360:A 6.32714e-05
4 *366:A 0.000221211
5 *427:A 0.000195541
6 *395:A1 0
7 *439:A 0.000742808
8 *512:A 7.14087e-05
9 *513:X 0.000143493
10 *202:94 0.0012856
11 *202:83 0.000629429
12 *202:57 0.00077793
13 *202:45 0.000941324
14 *202:34 0.000570159
15 *202:17 0.00117115
16 *202:6 0.000375606
17 *427:A *207:135 0.00012816
18 *427:A *209:60 0
19 *439:A *204:77 0.000286158
20 *439:A *205:84 0
21 *202:6 *203:54 0.000240957
22 *202:17 *203:54 4.78359e-05
23 *202:17 *209:34 0
24 *202:34 *205:84 0
25 *202:45 *390:B1 0
26 *202:57 *207:118 0
27 *202:57 *207:135 0.000128662
28 *202:57 *209:60 0.000474182
29 *360:B *360:A 0
30 *366:B *366:A 0
31 *366:B *427:A 0.000160013
32 *367:A *202:83 0
33 *370:A1 *409:B1 0
34 *380:A2 *427:A 4.77425e-05
35 *380:B1 *512:A 0
36 *380:B1 *202:17 0.000174364
37 *381:A *409:B1 6.46834e-05
38 *395:B2 *202:45 0
39 *395:A2 *202:34 0
40 *402:B1 *439:A 8.0216e-05
41 *412:B1 *360:A 1.54008e-05
42 *428:B *202:57 0
43 *431:B1 *202:57 0
44 *439:B *439:A 0
45 *443:A2 *202:17 0
46 *449:B1 *409:B1 0
47 *468:A2 *360:A 0
48 *500:A *409:B1 0.00024046
49 *63:12 *202:45 0
50 *72:50 *409:B1 0.00020871
51 *79:6 *410:A 0.000143374
52 *79:12 *202:94 0
53 *79:41 *410:A 8.01445e-05
54 *106:8 *439:A 0
55 *107:10 *439:A 0
56 *110:8 *439:A 0
57 *120:10 *409:B1 0
58 *125:14 *427:A 0
59 *130:10 *439:A 0
60 *130:38 *439:A 0.00128721
61 *130:38 *202:34 0.0005295
62 *149:18 *409:B1 1.54008e-05
63 *155:39 *427:A 7.51285e-05
64 *159:43 *409:B1 0
65 *169:8 *427:A 0.000128248
66 *170:8 *202:34 0
67 *170:12 *202:34 1.54008e-05
68 *170:12 *202:45 3.23417e-05
69 *170:14 *202:34 8.0216e-05
70 *189:24 *409:B1 0.000208747
71 *189:28 *202:45 0
72 *189:28 *202:83 0
73 *189:32 *202:34 0
74 *189:32 *202:45 0
75 *192:123 *409:B1 4.78524e-05
76 *194:37 *202:6 0
77 *195:25 *202:83 0
78 *195:105 *409:B1 1.55212e-05
79 *198:47 *202:94 0
80 *198:69 *409:B1 0
81 *198:69 *202:94 0
82 *201:10 *202:6 0.000143002
*RES
1 *513:X *202:6 21.6171 
2 *202:6 *512:A 20.8446 
3 *202:6 *202:17 21.6171 
4 *202:17 *439:A 48.549 
5 *202:17 *202:34 23.1106 
6 *202:34 *395:A1 20 
7 *202:34 *202:45 22.6162 
8 *202:45 *202:57 44.12 
9 *202:57 *427:A 42.472 
10 *202:57 *366:A 42.1836 
11 *202:45 *202:83 1.7302 
12 *202:83 *360:A 40.5356 
13 *202:83 *202:94 2.0806 
14 *202:94 *410:A 41.4008 
15 *202:94 *409:B1 48.446 
*END

*D_NET *203 0.0145653
*CONN
*I *407:A1 I *D sg13g2_a21oi_1
*I *408:A1 I *D sg13g2_o21ai_1
*I *448:B I *D sg13g2_nand3b_1
*I *513:A I *D sg13g2_buf_1
*I *511:A I *D sg13g2_buf_1
*I *514:X O *D sg13g2_buf_1
*CAP
1 *407:A1 0.000241382
2 *408:A1 5.66948e-05
3 *448:B 0.000209592
4 *513:A 0.000113985
5 *511:A 0.000145019
6 *514:X 0
7 *203:77 0.000298077
8 *203:62 0.000979537
9 *203:54 0.000972168
10 *203:37 0.00140424
11 *203:29 0.00175568
12 *203:16 0.000968671
13 *203:6 0.00149131
14 *513:A *210:78 0
15 *203:16 *206:39 0
16 *203:16 *211:54 0
17 *203:29 *207:34 0
18 *203:29 *211:54 0
19 *203:37 *205:33 0
20 *203:37 *205:57 0
21 *203:37 *205:74 0
22 *203:54 *209:34 0.000337982
23 *203:62 *210:86 0
24 *337:A *203:16 0
25 *383:A2 *513:A 0
26 *392:A1 *203:29 0.000178388
27 *392:A2 *407:A1 0
28 *406:A *203:29 0.000547044
29 *407:B1 *407:A1 0
30 *407:B1 *203:29 0.00012862
31 *408:B1 *407:A1 0.000197318
32 *408:A2 *408:A1 1.54008e-05
33 *443:A1 *203:62 0
34 *443:A2 *203:62 0.000497993
35 *448:C *448:B 0.000222523
36 *450:C *448:B 1.54008e-05
37 *490:RESET_B *203:16 0
38 *33:26 *203:16 0.000337475
39 *56:59 *407:A1 0.000111567
40 *56:59 *408:A1 0
41 *60:6 *407:A1 0
42 *97:33 *203:62 0.000815048
43 *132:8 *203:16 0
44 *134:8 *511:A 0.000207144
45 *152:18 *448:B 0
46 *152:18 *203:62 0.000234592
47 *157:27 *203:62 0
48 *158:18 *203:37 0.000280657
49 *159:43 *448:B 0.000288379
50 *175:28 *203:16 0.000125705
51 *175:57 *203:16 0.000180809
52 *175:57 *203:29 0
53 *189:28 *448:B 0.0002851
54 *189:28 *203:62 0
55 *189:44 *203:37 0
56 *194:37 *513:A 0.000179389
57 *194:37 *203:37 0.000180882
58 *195:19 *203:62 0.000177295
59 *195:105 *448:B 0
60 *198:36 *203:62 4.77348e-05
61 *200:14 *511:A 0
62 *200:42 *203:29 0
63 *200:57 *203:29 0
64 *201:10 *513:A 4.77425e-05
65 *202:6 *203:54 0.000240957
66 *202:17 *203:54 4.78359e-05
*RES
1 *514:X *203:6 40 
2 *203:6 *203:16 48.1576 
3 *203:16 *511:A 41.4008 
4 *203:6 *203:29 6.3551 
5 *203:29 *203:37 49.9086 
6 *203:37 *513:A 41.1639 
7 *203:37 *203:54 42.266 
8 *203:54 *203:62 49.1979 
9 *203:62 *448:B 43.1827 
10 *203:29 *203:77 20 
11 *203:77 *408:A1 20.5356 
12 *203:77 *407:A1 22.6368 
*END

*D_NET *204 0.0127266
*CONN
*I *423:A1 I *D sg13g2_o21ai_1
*I *387:A I *D sg13g2_xnor2_1
*I *365:B I *D sg13g2_nand2_1
*I *364:B I *D sg13g2_and2_1
*I *378:B I *D sg13g2_nand2_1
*I *355:A I *D sg13g2_nor2_1
*I *335:B I *D sg13g2_and2_1
*I *339:B I *D sg13g2_xor2_1
*I *515:X O *D sg13g2_buf_1
*CAP
1 *423:A1 0.000372867
2 *387:A 0
3 *365:B 2.90123e-05
4 *364:B 0.000470245
5 *378:B 0
6 *355:A 0
7 *335:B 0.000291702
8 *339:B 0.000125512
9 *515:X 0
10 *204:77 0.00106655
11 *204:62 0.00114063
12 *204:52 0.000961126
13 *204:28 0.00117713
14 *204:24 0.00117622
15 *204:18 0.000559113
16 *204:4 0.00090346
17 *364:B *402:A2 0
18 *364:B *205:92 0
19 *364:B *206:88 0
20 *364:B *206:98 0.000144893
21 *365:B *207:55 4.77425e-05
22 *423:A1 *515:A 0
23 *204:24 *210:15 4.78521e-05
24 *204:52 *206:62 0.000124859
25 *204:62 *206:62 0.000234329
26 *204:62 *210:23 0.000469006
27 *204:77 *386:A1 0
28 *204:77 *206:88 0
29 *378:A *204:77 0
30 *385:B *204:62 0
31 *386:B1 *204:77 0
32 *389:B *204:18 0
33 *393:B *423:A1 0
34 *402:B1 *364:B 0
35 *418:A1 *365:B 1.54008e-05
36 *423:B1 *423:A1 0
37 *425:A1 *204:18 0.000341638
38 *439:A *204:77 0.000286158
39 *440:A1 *364:B 0
40 *478:A *339:B 0.000235245
41 *24:27 *204:28 0
42 *41:16 *204:62 0
43 *41:25 *204:62 0.000112686
44 *41:25 *204:77 1.54008e-05
45 *53:12 *204:52 0.000244766
46 *54:8 *204:18 0
47 *56:6 *204:24 0
48 *56:34 *204:18 0
49 *56:72 *204:18 0.000179804
50 *57:12 *204:18 0.000128248
51 *58:8 *204:18 0.000972531
52 *74:33 *423:A1 0.000142999
53 *75:12 *423:A1 3.23417e-05
54 *75:12 *204:18 4.77425e-05
55 *91:18 *204:18 0.000284028
56 *107:10 *364:B 0.000153345
57 *130:10 *204:77 0
58 *147:10 *204:77 0.000144145
59 *155:6 *364:B 0
60 *158:39 *423:A1 0
61 *190:14 *335:B 0
62 *190:16 *335:B 0
63 *190:16 *339:B 0
64 *190:51 *204:28 0
65 *195:46 *364:B 0
66 *199:96 *364:B 4.78195e-05
67 *200:31 *204:18 0
*RES
1 *515:X *204:4 20 
2 *204:4 *204:18 47.8074 
3 *204:18 *204:24 40.3193 
4 *204:24 *204:28 27.6735 
5 *204:28 *339:B 41.339 
6 *204:28 *335:B 42.3278 
7 *204:24 *204:52 24.5938 
8 *204:52 *204:62 26.2521 
9 *204:62 *355:A 20 
10 *204:62 *204:77 45.6289 
11 *204:77 *378:B 20 
12 *204:77 *364:B 24.8564 
13 *204:52 *365:B 40.3193 
14 *204:18 *387:A 20 
15 *204:4 *423:A1 23.5226 
*END

*D_NET *205 0.0130514
*CONN
*I *390:A2 I *D sg13g2_o21ai_1
*I *402:A2 I *D sg13g2_o21ai_1
*I *384:A I *D sg13g2_nor2_1
*I *386:A1 I *D sg13g2_a21oi_1
*I *376:B2 I *D sg13g2_a22oi_1
*I *403:B1 I *D sg13g2_o21ai_1
*I *356:B I *D sg13g2_nor2_1
*I *515:A I *D sg13g2_buf_1
*I *516:X O *D sg13g2_buf_1
*CAP
1 *390:A2 0.000114878
2 *402:A2 2.86876e-05
3 *384:A 0
4 *386:A1 0.000468779
5 *376:B2 0
6 *403:B1 0.000412685
7 *356:B 3.09111e-05
8 *515:A 0.000639533
9 *516:X 0
10 *205:96 0.000620302
11 *205:92 0.000411458
12 *205:84 0.00129071
13 *205:74 0.00183713
14 *205:63 8.38383e-05
15 *205:57 0.0010345
16 *205:33 0.00123885
17 *205:27 0.00120355
18 *205:6 0.000759969
19 *386:A1 *384:B 0
20 *386:A1 *402:A1 0
21 *390:A2 *390:B1 0.00014382
22 *402:A2 *402:A1 0
23 *403:B1 *207:91 0
24 *403:B1 *209:8 1.54008e-05
25 *403:B1 *209:14 0.000207785
26 *403:B1 *216:14 0
27 *205:33 *211:86 0.00039332
28 *205:84 *206:88 0.000244059
29 *205:92 *206:98 0
30 *205:96 *384:B 0
31 *205:96 *402:A1 0
32 *364:B *402:A2 0
33 *364:B *205:92 0
34 *371:A *356:B 0
35 *391:B *205:33 0
36 *402:B1 *386:A1 0
37 *402:B1 *402:A2 1.54556e-05
38 *402:B1 *205:96 0
39 *416:A2 *205:63 0
40 *422:B *515:A 4.77425e-05
41 *423:A1 *515:A 0
42 *427:C *390:A2 0
43 *434:A *515:A 0
44 *437:A *386:A1 0
45 *439:A *205:84 0
46 *439:C *386:A1 0
47 *466:A1 *205:84 0
48 *466:A2 *205:84 0
49 *31:16 *205:33 0
50 *41:109 *205:33 0
51 *53:34 *205:84 0
52 *53:34 *205:92 0
53 *63:12 *205:74 7.33225e-05
54 *63:12 *205:84 0.00012785
55 *65:33 *205:63 4.77153e-05
56 *71:8 *205:92 0
57 *75:12 *515:A 8.00954e-05
58 *90:8 *515:A 0
59 *91:10 *515:A 0
60 *91:18 *515:A 0
61 *95:8 *205:84 2.2289e-05
62 *102:12 *515:A 0.00075864
63 *102:12 *205:27 0
64 *110:8 *205:84 0
65 *125:14 *205:84 0
66 *148:12 *356:B 1.54008e-05
67 *148:12 *403:B1 0
68 *148:12 *205:33 0
69 *148:25 *403:B1 0
70 *155:28 *205:84 0
71 *157:12 *205:74 0
72 *157:18 *205:74 0
73 *158:39 *515:A 0
74 *170:8 *205:84 0
75 *177:8 *403:B1 0
76 *177:8 *205:33 0
77 *186:8 *205:27 0
78 *187:33 *403:B1 0.000287672
79 *189:44 *205:74 0
80 *192:22 *205:33 0
81 *192:35 *205:33 0
82 *192:35 *205:57 0
83 *199:81 *205:84 0.000395043
84 *202:34 *205:84 0
85 *203:37 *205:33 0
86 *203:37 *205:57 0
87 *203:37 *205:74 0
88 *204:77 *386:A1 0
*RES
1 *516:X *205:6 40 
2 *205:6 *515:A 47.0349 
3 *205:6 *205:27 21.0918 
4 *205:27 *205:33 28.0855 
5 *205:33 *356:B 40.3193 
6 *205:33 *403:B1 44.4805 
7 *205:27 *205:57 3.1312 
8 *205:57 *205:63 40.7519 
9 *205:63 *376:B2 20 
10 *205:57 *205:74 26.5096 
11 *205:74 *205:84 30.3 
12 *205:84 *205:92 42.1218 
13 *205:92 *205:96 1.8746 
14 *205:96 *386:A1 24.5938 
15 *205:96 *384:A 20 
16 *205:92 *402:A2 20.5356 
17 *205:74 *390:A2 40.9682 
*END

*D_NET *206 0.00935352
*CONN
*I *420:A1 I *D sg13g2_o21ai_1
*I *364:A I *D sg13g2_and2_1
*I *331:A I *D sg13g2_inv_1
*I *365:A I *D sg13g2_nand2_1
*I *385:A I *D sg13g2_nor2_1
*I *388:A I *D sg13g2_and2_1
*I *336:B I *D sg13g2_nand2_1
*I *337:B I *D sg13g2_xnor2_1
*I *517:X O *D sg13g2_buf_1
*CAP
1 *420:A1 9.63635e-05
2 *364:A 0
3 *331:A 0
4 *365:A 0
5 *385:A 0
6 *388:A 0
7 *336:B 0
8 *337:B 0.000332521
9 *517:X 6.70415e-05
10 *206:98 0.000225023
11 *206:88 0.000743124
12 *206:75 0.000992752
13 *206:71 0.000733807
14 *206:62 0.000446166
15 *206:51 0.000587269
16 *206:39 0.000171924
17 *206:16 0.000749009
18 *206:14 0.0004527
19 *206:6 0.000579073
20 *337:B *479:A 8.0216e-05
21 *206:6 *207:55 0
22 *206:14 *210:23 0
23 *206:16 *479:A 0
24 *206:16 *210:15 0
25 *206:51 *207:55 0
26 *206:51 *210:23 0.000339557
27 *206:62 *207:55 0
28 *206:62 *210:23 0.000259221
29 *337:A *337:B 0
30 *364:B *206:88 0
31 *364:B *206:98 0.000144893
32 *372:B *206:75 0
33 *388:B *206:14 1.54282e-05
34 *388:B *206:16 8.0216e-05
35 *420:A2 *206:71 0
36 *489:RESET_B *206:16 0
37 *489:RESET_B *206:39 4.12877e-05
38 *489:D *337:B 0
39 *520:A *206:16 0
40 *523:A *206:39 0.00018091
41 *28:10 *206:39 0
42 *41:8 *206:62 0
43 *41:16 *206:51 0
44 *41:51 *206:62 0
45 *41:51 *206:71 0
46 *53:12 *206:88 0
47 *56:6 *206:14 6.39144e-05
48 *56:72 *206:14 0
49 *57:8 *206:16 0
50 *107:10 *206:88 8.00375e-05
51 *130:10 *206:88 4.78195e-05
52 *130:38 *206:88 0.000129476
53 *132:8 *206:39 0
54 *133:6 *337:B 0
55 *168:12 *206:75 0
56 *168:12 *206:88 0
57 *175:28 *337:B 0
58 *175:28 *206:16 0.000143277
59 *175:28 *206:39 0
60 *195:46 *206:88 0
61 *195:48 *206:75 0
62 *195:48 *206:88 0
63 *200:14 *206:6 0
64 *200:18 *206:14 0.000444933
65 *201:33 *420:A1 0.000287256
66 *201:33 *206:71 0.000235055
67 *201:45 *206:71 0
68 *201:71 *206:75 0
69 *203:16 *206:39 0
70 *204:52 *206:62 0.000124859
71 *204:62 *206:62 0.000234329
72 *204:77 *206:88 0
73 *205:84 *206:88 0.000244059
74 *205:92 *206:98 0
*RES
1 *517:X *206:6 20.5356 
2 *206:6 *206:14 42.6162 
3 *206:14 *206:16 2.266 
4 *206:16 *337:B 23.2136 
5 *206:16 *206:39 41.7767 
6 *206:39 *336:B 20 
7 *206:14 *388:A 20 
8 *206:6 *206:51 3.1312 
9 *206:51 *385:A 20 
10 *206:51 *206:62 23.4196 
11 *206:62 *365:A 40 
12 *206:62 *206:71 2.0806 
13 *206:71 *206:75 23.9964 
14 *206:75 *331:A 20 
15 *206:75 *206:88 45.3972 
16 *206:88 *206:98 42.3484 
17 *206:98 *364:A 20 
18 *206:71 *420:A1 41.339 
*END

*D_NET *207 0.0185713
*CONN
*I *374:A I *D sg13g2_xnor2_1
*I *390:A1 I *D sg13g2_o21ai_1
*I *373:A I *D sg13g2_nor2_1
*I *403:A1 I *D sg13g2_o21ai_1
*I *356:A I *D sg13g2_nor2_1
*I *405:B I *D sg13g2_nand2b_1
*I *402:A1 I *D sg13g2_o21ai_1
*I *517:A I *D sg13g2_buf_1
*I *518:X O *D sg13g2_buf_1
*CAP
1 *374:A 2.75615e-05
2 *390:A1 0
3 *373:A 0
4 *403:A1 0
5 *356:A 0
6 *405:B 0
7 *402:A1 0.000166635
8 *517:A 2.99312e-05
9 *518:X 0.000435822
10 *207:135 0.000280223
11 *207:118 0.0011881
12 *207:110 0.00132594
13 *207:91 0.000304077
14 *207:83 0.000668361
15 *207:61 0.000430583
16 *207:55 0.00135755
17 *207:34 0.00193704
18 *207:20 0.00139933
19 *207:8 0.000995419
20 *374:A *374:B 4.77425e-05
21 *402:A1 *384:B 0.000177268
22 *517:A *479:A 0
23 *207:20 *211:76 0.00023108
24 *207:34 *211:54 0.000655892
25 *207:55 *332:A 0.000112328
26 *207:55 *479:A 0
27 *207:55 *210:15 0
28 *207:55 *210:23 0
29 *207:55 *210:38 0
30 *207:61 *210:44 0.000507677
31 *207:83 *209:8 0.000128598
32 *207:83 *209:14 1.54008e-05
33 *207:91 *209:14 0.000207957
34 *207:110 *374:B 0
35 *207:110 *210:107 0
36 *365:B *207:55 4.77425e-05
37 *371:A *207:91 0
38 *371:B *207:91 0.000240621
39 *375:A *207:118 0
40 *386:A1 *402:A1 0
41 *386:B1 *207:55 0
42 *393:B *207:20 8.00842e-05
43 *394:A_N *207:135 0.000181279
44 *397:A2 *207:110 0
45 *402:B1 *402:A1 1.54556e-05
46 *402:A2 *402:A1 0
47 *403:B1 *207:91 0
48 *404:B1 *207:118 0.000234398
49 *405:A_N *207:20 4.77425e-05
50 *416:A2 *207:110 0
51 *418:A1 *207:55 0
52 *426:B1 *207:118 0
53 *427:A *207:135 0.00012816
54 *431:B1 *207:118 0
55 *431:A1 *207:118 0
56 *437:A *207:55 0.000175913
57 *437:B *207:55 0
58 *468:A1 *207:135 7.51285e-05
59 *518:A *207:8 7.97166e-05
60 *25:8 *207:91 0.000181781
61 *31:35 *207:118 0.000234224
62 *41:25 *207:55 0
63 *41:99 *207:83 0.000604318
64 *56:19 *207:34 0.00108809
65 *56:72 *207:55 0.000275921
66 *74:8 *207:20 0.000180882
67 *99:16 *207:118 0.000531171
68 *125:14 *207:135 0.00039377
69 *148:29 *207:83 0.000128598
70 *148:29 *207:91 4.77425e-05
71 *158:8 *207:118 0
72 *163:8 *207:118 4.77425e-05
73 *164:21 *207:118 8.00842e-05
74 *175:10 *207:34 0
75 *175:57 *207:8 7.97166e-05
76 *175:57 *207:110 0.000241429
77 *177:8 *207:91 0
78 *187:33 *207:91 0.000181279
79 *195:25 *207:118 0
80 *200:14 *207:55 0
81 *200:18 *207:34 0
82 *200:31 *207:20 4.7475e-05
83 *200:31 *207:34 1.53326e-05
84 *200:42 *207:20 0
85 *200:42 *207:34 7.30101e-05
86 *200:57 *207:20 0
87 *200:76 *207:20 0
88 *201:35 *207:55 0
89 *201:71 *207:55 7.33256e-05
90 *202:57 *207:118 0
91 *202:57 *207:135 0.000128662
92 *203:29 *207:34 0
93 *205:96 *402:A1 0
94 *206:6 *207:55 0
95 *206:51 *207:55 0
96 *206:62 *207:55 0
*RES
1 *518:X *207:8 40.5356 
2 *207:8 *207:20 25.3354 
3 *207:20 *207:34 49.5996 
4 *207:34 *517:A 20.3193 
5 *207:34 *207:55 30.7223 
6 *207:55 *207:61 43.3475 
7 *207:61 *402:A1 41.751 
8 *207:20 *405:B 20 
9 *207:8 *207:83 24.2848 
10 *207:83 *207:91 43.605 
11 *207:91 *356:A 20 
12 *207:83 *403:A1 20 
13 *518:X *207:110 23.7286 
14 *207:110 *207:118 49.1979 
15 *207:118 *373:A 20 
16 *207:118 *207:135 43.811 
17 *207:135 *390:A1 20 
18 *207:110 *374:A 20.3193 
*END

*D_NET *208 0.00369582
*CONN
*I *538:A I *D sg13g2_buf_1
*I *469:Y O *D sg13g2_nor2_1
*CAP
1 *538:A 0.000364029
2 *469:Y 0.000661391
3 *208:12 0.00102542
4 *208:12 *213:10 0
5 *208:12 *214:10 0.000395067
6 DATA[8] *208:12 0
7 *461:B *208:12 0
8 *463:A1 *538:A 0.000223378
9 *464:A2 *538:A 0.000112826
10 *469:A *208:12 0
11 *532:A *538:A 0.000166648
12 *3:10 *538:A 0
13 *5:10 *208:12 0
14 *125:14 *208:12 0
15 *185:12 *208:12 0.000394151
16 *194:61 *538:A 0.000209086
17 *198:84 *538:A 0.00014382
*RES
1 *469:Y *208:12 48.4357 
2 *208:12 *538:A 44.017 
*END

*D_NET *209 0.0147279
*CONN
*I *403:A2 I *D sg13g2_o21ai_1
*I *369:B I *D sg13g2_nor2_1
*I *409:A1 I *D sg13g2_o21ai_1
*I *374:B I *D sg13g2_xnor2_1
*I *376:A1 I *D sg13g2_a22oi_1
*I *373:B I *D sg13g2_nor2_1
*I *379:A I *D sg13g2_nand2_1
*I *380:A1 I *D sg13g2_a21oi_1
*I *519:X O *D sg13g2_buf_1
*CAP
1 *403:A2 0
2 *369:B 0.000496326
3 *409:A1 0
4 *374:B 0.000111874
5 *376:A1 9.19184e-05
6 *373:B 0
7 *379:A 0
8 *380:A1 0
9 *519:X 0.000212735
10 *209:91 0.000112559
11 *209:60 0.000369378
12 *209:45 0.000615775
13 *209:34 0.00113801
14 *209:24 0.00121891
15 *209:22 0.000956529
16 *209:18 0.00139374
17 *209:14 0.00170033
18 *209:8 0.000744849
19 *209:34 *210:86 0.000467463
20 *366:B *209:60 0.000181608
21 *369:A *369:B 0
22 *370:A2 *369:B 7.9712e-05
23 *374:A *374:B 4.77425e-05
24 *376:A2 *376:A1 0
25 *379:B *209:60 0
26 *380:A2 *209:34 1.00461e-05
27 *380:A2 *209:45 0.00011241
28 *380:A2 *209:60 0
29 *380:B1 *209:34 0
30 *380:B1 *209:45 0
31 *381:A *209:91 1.54008e-05
32 *398:B *209:34 0
33 *399:A *209:34 0
34 *399:B_N *209:34 8.0216e-05
35 *400:B1 *209:34 7.9706e-05
36 *403:B1 *209:8 1.54008e-05
37 *403:B1 *209:14 0.000207785
38 *404:B1 *209:22 0
39 *404:B1 *209:24 0
40 *416:A2 *376:A1 0.000144389
41 *422:B *209:34 0
42 *426:A2 *374:B 0
43 *427:A *209:60 0
44 *443:B1 *209:45 0
45 *476:A_N *209:22 0.000176625
46 *25:8 *209:14 0
47 *31:39 *209:22 0
48 *41:81 *209:18 0
49 *41:81 *209:91 0
50 *42:14 *369:B 0.000143446
51 *43:10 *209:91 0
52 *43:18 *209:18 0
53 *72:8 *209:8 0
54 *72:27 *209:18 0
55 *101:10 *209:22 0.000604472
56 *101:18 *209:14 0
57 *101:18 *209:18 0
58 *102:12 *209:22 0
59 *129:22 *369:B 0
60 *129:39 *369:B 0
61 *148:29 *209:8 0
62 *149:18 *209:91 4.77534e-05
63 *155:39 *209:60 0.000181608
64 *161:8 *209:14 0
65 *163:8 *209:60 1.54008e-05
66 *172:48 *369:B 0
67 *189:40 *209:34 0
68 *189:40 *209:45 0
69 *191:57 *209:14 0
70 *192:35 *209:22 5.27974e-05
71 *192:35 *209:24 0.000529496
72 *192:35 *209:34 0.000280508
73 *192:48 *209:18 0
74 *192:123 *209:18 0
75 *192:123 *209:91 0
76 *194:22 *209:34 0
77 *195:36 *209:60 0.000926908
78 *201:10 *209:34 0
79 *202:17 *209:34 0
80 *202:57 *209:60 0.000474182
81 *203:54 *209:34 0.000337982
82 *207:83 *209:8 0.000128598
83 *207:83 *209:14 1.54008e-05
84 *207:91 *209:14 0.000207957
85 *207:110 *374:B 0
*RES
1 *519:X *209:8 22.2454 
2 *209:8 *209:14 24.7174 
3 *209:14 *209:18 26.1594 
4 *209:18 *209:22 26.0358 
5 *209:22 *209:24 2.575 
6 *209:24 *209:34 28.7808 
7 *209:34 *380:A1 20 
8 *209:34 *209:45 2.56985 
9 *209:45 *379:A 20 
10 *209:45 *209:60 45.8092 
11 *209:60 *373:B 20 
12 *209:24 *376:A1 40.9682 
13 *209:22 *374:B 40.9682 
14 *209:18 *209:91 41.0712 
15 *209:91 *409:A1 20 
16 *209:14 *369:B 44.2848 
17 *209:8 *403:A2 20 
*END

*D_NET *210 0.0170578
*CONN
*I *387:B I *D sg13g2_xnor2_1
*I *382:A1 I *D sg13g2_o21ai_1
*I *519:A I *D sg13g2_buf_1
*I *390:B1 I *D sg13g2_o21ai_1
*I *436:B I *D sg13g2_nor3_1
*I *384:B I *D sg13g2_nor2_1
*I *332:A I *D sg13g2_inv_1
*I *479:A I *D sg13g2_xnor2_1
*I *520:X O *D sg13g2_buf_1
*CAP
1 *387:B 0
2 *382:A1 0
3 *519:A 0.000537833
4 *390:B1 0.000491923
5 *436:B 4.21087e-05
6 *384:B 0.000106242
7 *332:A 6.98421e-05
8 *479:A 0.0002626
9 *520:X 2.8155e-05
10 *210:107 0.00122369
11 *210:86 0.00116819
12 *210:78 0.00175269
13 *210:72 0.00112724
14 *210:57 0.000873526
15 *210:44 0.000417541
16 *210:38 0.000503477
17 *210:27 0.000276812
18 *210:23 0.000827695
19 *210:15 0.000863908
20 *210:6 0.000436502
21 *337:B *479:A 8.0216e-05
22 *338:A2 *479:A 0
23 *375:A *210:107 0
24 *376:A2 *210:107 0.000273469
25 *382:A2 *210:72 0
26 *382:A2 *210:78 0
27 *386:A1 *384:B 0
28 *390:A2 *390:B1 0.00014382
29 *395:B2 *390:B1 0
30 *395:A2 *390:B1 0
31 *398:C *210:86 0
32 *402:A1 *384:B 0.000177268
33 *404:A2 *519:A 0
34 *416:A2 *210:107 0
35 *425:A2 *210:72 0
36 *428:B *390:B1 0
37 *431:B1 *390:B1 0
38 *443:A1 *210:86 0
39 *479:B *479:A 4.78195e-05
40 *479:B *210:6 0
41 *513:A *210:78 0
42 *517:A *479:A 0
43 *520:A *479:A 0.000175174
44 *41:8 *210:27 0
45 *41:16 *210:23 0
46 *41:25 *332:A 0
47 *41:25 *210:23 0.000177083
48 *41:51 *210:27 0
49 *41:51 *210:38 0
50 *41:51 *210:57 0
51 *41:53 *210:72 0
52 *53:12 *210:44 0.000601559
53 *54:8 *210:23 0
54 *56:6 *210:15 0
55 *56:72 *210:23 7.49043e-05
56 *63:12 *390:B1 2.17985e-05
57 *65:18 *210:78 0
58 *65:33 *210:107 0.000175721
59 *72:8 *519:A 0
60 *73:8 *519:A 0.000608608
61 *105:8 *210:72 0
62 *147:10 *210:27 0
63 *148:42 *519:A 0
64 *158:18 *210:78 7.33256e-05
65 *158:18 *210:107 0.000490114
66 *168:12 *436:B 8.03091e-05
67 *168:16 *210:72 0
68 *175:10 *479:A 0
69 *186:8 *519:A 0
70 *189:40 *210:86 0
71 *192:12 *519:A 0
72 *194:22 *210:86 8.00842e-05
73 *194:22 *210:107 0
74 *194:37 *210:72 0.000181297
75 *194:37 *210:86 3.23417e-05
76 *200:14 *479:A 0
77 *200:18 *210:23 0
78 *201:10 *210:78 0
79 *201:71 *436:B 8.0216e-05
80 *201:71 *210:38 2.14736e-05
81 *201:71 *210:57 0.000248092
82 *202:45 *390:B1 0
83 *203:62 *210:86 0
84 *204:24 *210:15 4.78521e-05
85 *204:62 *210:23 0.000469006
86 *205:96 *384:B 0
87 *206:14 *210:23 0
88 *206:16 *479:A 0
89 *206:16 *210:15 0
90 *206:51 *210:23 0.000339557
91 *206:62 *210:23 0.000259221
92 *207:55 *332:A 0.000112328
93 *207:55 *479:A 0
94 *207:55 *210:15 0
95 *207:55 *210:23 0
96 *207:55 *210:38 0
97 *207:61 *210:44 0.000507677
98 *207:110 *210:107 0
99 *209:34 *210:86 0.000467463
*RES
1 *520:X *210:6 20.3502 
2 *210:6 *479:A 22.6986 
3 *210:6 *210:15 1.4008 
4 *210:15 *210:23 48.3945 
5 *210:23 *210:27 21.0918 
6 *210:27 *332:A 40.7519 
7 *210:27 *210:38 0.8446 
8 *210:38 *210:44 43.9964 
9 *210:44 *384:B 41.1845 
10 *210:38 *210:57 1.4111 
11 *210:57 *436:B 40.5356 
12 *210:57 *210:72 26.077 
13 *210:72 *210:78 23.1106 
14 *210:78 *210:86 45.7062 
15 *210:86 *390:B1 44.0788 
16 *210:78 *210:107 46.7568 
17 *210:107 *519:A 45.4899 
18 *210:72 *382:A1 20 
19 *210:15 *387:B 20 
*END

*D_NET *211 0.0166441
*CONN
*I *482:A I *D sg13g2_inv_1
*I *480:A I *D sg13g2_inv_1
*I *486:A I *D sg13g2_inv_1
*I *334:A I *D sg13g2_inv_1
*I *484:A I *D sg13g2_inv_1
*I *483:A I *D sg13g2_inv_1
*I *481:A I *D sg13g2_inv_1
*I *485:A I *D sg13g2_inv_1
*I *521:X O *D sg13g2_buf_1
*CAP
1 *482:A 0
2 *480:A 0
3 *486:A 0
4 *334:A 0
5 *484:A 0
6 *483:A 0
7 *481:A 0
8 *485:A 0.000285171
9 *521:X 0.000251352
10 *211:114 0.000160397
11 *211:106 0.000992582
12 *211:86 0.000299244
13 *211:80 0.000695252
14 *211:76 0.00213922
15 *211:61 0.000984908
16 *211:54 0.000336034
17 *211:48 0.000510489
18 *211:37 0.000836822
19 *211:16 0.00108009
20 *211:8 0.00163476
21 *333:A *211:80 0
22 *347:B *485:A 0
23 *370:A1 *211:106 0.00020956
24 *381:A *211:114 4.77425e-05
25 *391:B *211:80 3.15716e-05
26 *404:A2 *211:106 0
27 *413:A *211:106 0.000112536
28 *415:B1 *211:80 0
29 *489:RESET_B *211:37 0.000207942
30 *489:RESET_B *211:48 6.49135e-05
31 *492:RESET_B *485:A 0
32 *521:A *211:8 0
33 *521:A *211:37 0
34 *27:20 *485:A 0.000242285
35 *32:12 *211:16 7.52158e-05
36 *33:26 *211:8 0
37 *33:26 *211:37 0
38 *41:99 *211:76 7.48178e-05
39 *41:99 *211:80 0.000143576
40 *41:99 *211:106 0.000103389
41 *41:109 *211:80 0
42 *41:109 *211:86 0
43 *56:34 *211:76 0
44 *57:8 *211:48 0
45 *62:8 *211:76 0.000438832
46 *74:18 *211:76 0
47 *75:12 *211:76 0.000175709
48 *82:12 *211:106 0.000176443
49 *84:10 *211:76 0
50 *84:10 *211:106 0
51 *97:29 *211:114 0.000390023
52 *131:10 *211:37 0.000111787
53 *139:10 *211:16 0
54 *148:12 *211:80 0
55 *149:8 *211:106 0.000494672
56 *173:24 *211:16 0
57 *175:57 *211:80 0
58 *177:8 *211:86 0
59 *186:8 *211:106 0.00091762
60 *190:10 *485:A 0.000242055
61 *190:10 *211:16 0
62 *190:12 *211:16 0
63 *190:14 *211:16 0
64 *192:22 *211:80 7.47216e-05
65 *194:22 *211:114 0.000390438
66 *196:119 *211:106 4.77425e-05
67 *199:26 *211:37 0.000111762
68 *199:26 *211:48 0.000272087
69 *200:31 *211:76 0
70 *203:16 *211:54 0
71 *203:29 *211:54 0
72 *205:33 *211:86 0.00039332
73 *207:20 *211:76 0.00023108
74 *207:34 *211:54 0.000655892
*RES
1 *521:X *211:8 22.3999 
2 *211:8 *211:16 47.8074 
3 *211:16 *485:A 23.6462 
4 *211:8 *211:37 6.2006 
5 *211:37 *481:A 20 
6 *211:37 *211:48 2.7192 
7 *211:48 *211:54 43.0694 
8 *211:54 *483:A 20 
9 *211:54 *211:61 0.8446 
10 *211:61 *484:A 20 
11 *211:61 *211:76 28.137 
12 *211:76 *211:80 23.2822 
13 *211:80 *211:86 43.0694 
14 *211:86 *334:A 20 
15 *211:80 *486:A 20 
16 *211:76 *211:106 30.0837 
17 *211:106 *211:114 42.5518 
18 *211:114 *480:A 20 
19 *211:48 *482:A 20 
*END

*D_NET *212 0.000780445
*CONN
*I *363:A I *D sg13g2_xnor2_1
*I *522:X O *D sg13g2_dlygate4sd3_1
*CAP
1 *363:A 3.01325e-05
2 *522:X 0.00010087
3 *212:8 0.000131003
4 *495:CLK *363:A 4.77425e-05
5 *27:20 *212:8 0.000395568
6 *39:8 *212:8 0
7 *174:35 *212:8 7.51285e-05
8 *192:83 *212:8 0
*RES
1 *522:X *212:8 41.8334 
2 *212:8 *363:A 40.3193 
*END

*D_NET *213 0.00192944
*CONN
*I *539:A I *D sg13g2_buf_1
*I *471:Y O *D sg13g2_a21oi_1
*CAP
1 *539:A 0.000183433
2 *471:Y 0.000313459
3 *213:10 0.000496892
4 DATA[12] *539:A 0
5 *462:B1 *213:10 0
6 *463:A1 *213:10 1.54008e-05
7 *464:A2 *213:10 0.000202282
8 *467:A *213:10 0.00018128
9 *3:10 *539:A 0.000242236
10 *124:6 *213:10 4.78195e-05
11 *124:23 *213:10 0.000231238
12 *196:106 *213:10 1.54008e-05
13 *208:12 *213:10 0
*RES
1 *471:Y *213:10 43.4505 
2 *213:10 *539:A 41.8334 
*END

*D_NET *214 0.000995022
*CONN
*I *540:A I *D sg13g2_buf_1
*I *472:Y O *D sg13g2_nor2_1
*CAP
1 *540:A 0
2 *472:Y 0.000259897
3 *214:10 0.000259897
4 *533:A *214:10 8.01612e-05
5 *185:12 *214:10 0
6 *208:12 *214:10 0.000395067
*RES
1 *472:Y *214:10 43.2342 
2 *214:10 *540:A 40 
*END

*D_NET *215 0.00367822
*CONN
*I *541:A I *D sg13g2_buf_1
*I *473:Y O *D sg13g2_nand2_1
*CAP
1 *541:A 0.000629451
2 *473:Y 0.000405099
3 *215:8 0.00103455
4 DATA[16] *541:A 4.77425e-05
5 DATA[17] *215:8 0
6 DATA[5] *541:A 7.96596e-05
7 *505:A *541:A 8.02595e-05
8 *13:8 *541:A 0
9 *23:8 *215:8 0
10 *182:12 *541:A 0.000888945
11 *192:52 *215:8 7.51285e-05
12 *192:67 *215:8 0.000437385
13 *194:61 *541:A 0
*RES
1 *473:Y *215:8 43.811 
2 *215:8 *541:A 46.7877 
*END

*D_NET *216 0.00425128
*CONN
*I *542:A I *D sg13g2_buf_1
*I *474:Y O *D sg13g2_nand2_1
*CAP
1 *542:A 0
2 *474:Y 0.000168718
3 *216:14 0.00120756
4 *216:10 0.00137628
5 DATA[1] *216:10 0
6 *354:B *216:14 0.000562301
7 *401:A *216:14 0
8 *401:B_N *216:14 4.77425e-05
9 *403:B1 *216:14 0
10 *474:A *216:10 4.7154e-05
11 *474:A *216:14 0
12 *474:B *216:10 4.7154e-05
13 *40:10 *216:14 0.000400189
14 *72:8 *216:14 0
15 *187:10 *216:10 0.000394184
16 *187:33 *216:14 0
17 *191:16 *216:14 0
18 *191:20 *216:14 0
19 *191:26 *216:14 0
*RES
1 *474:Y *216:10 42.1527 
2 *216:10 *216:14 31.1343 
3 *216:14 *542:A 20 
*END

*D_NET *217 0.00063504
*CONN
*I *543:A I *D sg13g2_buf_1
*I *475:Y O *D sg13g2_o21ai_1
*CAP
1 *543:A 0.000196476
2 *475:Y 0.000196476
3 *13:8 *543:A 0.000242089
4 *196:70 *543:A 0
*RES
1 *475:Y *543:A 42.2145 
*END
