*SPEF "ieee 1481-1999"
*DESIGN "DigitalSine"
*DATE "23:33:50 Wednesday September 16, 2026"
*VENDOR "The OpenROAD Project"
*PROGRAM "OpenROAD"
*VERSION "26Q1-1024-gdcf36133a"
*DESIGN_FLOW "NAME_SCOPE LOCAL" "PIN_CAP NONE"
*DIVIDER /
*DELIMITER :
*BUS_DELIMITER []
*T_UNIT 1 NS
*C_UNIT 1 PF
*R_UNIT 1 OHM
*L_UNIT 1 HENRY

*NAME_MAP
*3 clk
*4 rst
*5 sign
*6 signB
*7 sine_out[0]
*8 sine_out[10]
*9 sine_out[11]
*10 sine_out[12]
*11 sine_out[13]
*12 sine_out[14]
*13 sine_out[15]
*14 sine_out[16]
*15 sine_out[17]
*16 sine_out[1]
*17 sine_out[2]
*18 sine_out[3]
*19 sine_out[4]
*20 sine_out[5]
*21 sine_out[6]
*22 sine_out[7]
*23 sine_out[8]
*24 sine_out[9]
*25 CTRL\.P0
*26 CTRL\.P1
*27 CTRL\.S0
*28 DPATH\.SUM\.Cout0
*29 DPATH\.SUM\.fa_1\.A
*30 DPATH\.SUM\.fa_1\.S
*31 DPATH\.SUM\.fa_2\.A
*32 DPATH\.SUM\.fa_2\.S
*33 DPATH\.SUM\.fa_3\.A
*34 DPATH\.SUM\.fa_3\.S
*35 DPATH\.SUM\.fa_4\.A
*36 DPATH\.SUM\.fa_4\.S
*37 DPATH\.SUM\.fa_5\.A
*38 DPATH\.SUM\.fa_5\.S
*39 DPATH\.SUM\.fa_6\.A
*40 DPATH\.SUM\.fa_6\.S
*41 DPATH\.SUM\.ha_0\.S
*42 _000_
*43 _001_
*44 _002_
*45 _003_
*46 _004_
*47 _005_
*48 _006_
*49 _007_
*50 _008_
*51 _009_
*52 _010_
*53 _011_
*54 _012_
*55 _013_
*56 _014_
*57 _015_
*58 _016_
*59 _017_
*60 _018_
*61 _019_
*62 _020_
*63 _021_
*64 _022_
*65 _023_
*66 _024_
*67 _025_
*68 _026_
*69 _027_
*70 _028_
*71 _029_
*72 _030_
*73 _031_
*74 _032_
*75 _033_
*76 _034_
*77 _035_
*78 _036_
*79 _037_
*80 _038_
*81 _039_
*82 _040_
*83 _041_
*84 _042_
*85 _043_
*86 _044_
*87 _045_
*88 _046_
*89 _047_
*90 _048_
*91 _049_
*92 _050_
*93 _051_
*94 _052_
*95 _053_
*96 _054_
*97 _055_
*98 _056_
*99 _057_
*100 _058_
*101 _059_
*102 _060_
*103 _061_
*104 _062_
*105 _063_
*106 _064_
*107 _065_
*108 _066_
*109 _067_
*110 _068_
*111 _069_
*112 _070_
*113 _071_
*114 _072_
*115 _073_
*116 _074_
*117 _075_
*118 _076_
*119 _077_
*120 _078_
*121 _079_
*122 _080_
*123 _081_
*124 _082_
*125 _083_
*126 _084_
*127 _085_
*128 _086_
*129 _087_
*130 _088_
*131 _089_
*132 _090_
*133 _091_
*134 _092_
*135 _093_
*136 _094_
*137 _095_
*138 _096_
*139 _097_
*140 _098_
*141 _099_
*142 _100_
*143 _101_
*144 _102_
*145 _103_
*146 _104_
*147 _105_
*148 _106_
*149 _107_
*150 _108_
*151 _109_
*152 _110_
*153 _111_
*154 _112_
*155 _113_
*156 _114_
*157 _115_
*158 _116_
*159 _117_
*160 _118_
*161 _119_
*162 _120_
*163 _121_
*164 _122_
*165 _123_
*166 _124_
*167 _125_
*168 _126_
*169 _127_
*170 _128_
*171 _129_
*172 clknet_0_clk
*173 clknet_1_0__leaf_clk
*174 clknet_1_1__leaf_clk
*175 net1
*176 net10
*177 net11
*178 net12
*179 net13
*180 net14
*181 net15
*182 net16
*183 net17
*184 net18
*185 net19
*186 net2
*187 net20
*188 net21
*189 net22
*190 net23
*191 net24
*192 net25
*193 net26
*194 net27
*195 net28
*196 net29
*197 net3
*198 net30
*199 net31
*200 net32
*201 net33
*202 net34
*203 net35
*204 net36
*205 net37
*206 net38
*207 net39
*208 net4
*209 net40
*210 net41
*211 net42
*212 net43
*213 net5
*214 net6
*215 net7
*216 net8
*217 net9
*218 FILLER_0_0
*219 FILLER_0_52
*220 FILLER_10_0
*221 FILLER_10_102
*222 FILLER_10_28
*223 FILLER_10_35
*224 FILLER_10_39
*225 FILLER_10_45
*226 FILLER_10_49
*227 FILLER_10_63
*228 FILLER_10_67
*229 FILLER_10_74
*230 FILLER_10_81
*231 FILLER_10_96
*232 FILLER_11_0
*233 FILLER_11_17
*234 FILLER_11_21
*235 FILLER_11_27
*236 FILLER_11_31
*237 FILLER_11_36
*238 FILLER_11_42
*239 FILLER_11_44
*240 FILLER_11_63
*241 FILLER_11_7
*242 FILLER_11_70
*243 FILLER_11_75
*244 FILLER_11_81
*245 FILLER_12_0
*246 FILLER_12_114
*247 FILLER_12_29
*248 FILLER_12_40
*249 FILLER_12_42
*250 FILLER_12_7
*251 FILLER_12_83
*252 FILLER_12_90
*253 FILLER_13_0
*254 FILLER_13_14
*255 FILLER_13_23
*256 FILLER_13_30
*257 FILLER_13_37
*258 FILLER_13_44
*259 FILLER_13_55
*260 FILLER_13_62
*261 FILLER_13_69
*262 FILLER_13_7
*263 FILLER_13_76
*264 FILLER_13_83
*265 FILLER_13_85
*266 FILLER_1_0
*267 FILLER_1_104
*268 FILLER_1_18
*269 FILLER_1_55
*270 FILLER_1_68
*271 FILLER_2_0
*272 FILLER_2_114
*273 FILLER_2_23
*274 FILLER_2_85
*275 FILLER_3_0
*276 FILLER_3_101
*277 FILLER_3_14
*278 FILLER_3_55
*279 FILLER_3_95
*280 FILLER_4_0
*281 FILLER_4_19
*282 FILLER_4_86
*283 FILLER_5_0
*284 FILLER_5_18
*285 FILLER_5_22
*286 FILLER_5_26
*287 FILLER_5_69
*288 FILLER_5_81
*289 FILLER_6_0
*290 FILLER_6_21
*291 FILLER_6_25
*292 FILLER_6_31
*293 FILLER_6_35
*294 FILLER_6_65
*295 FILLER_6_7
*296 FILLER_6_77
*297 FILLER_6_90
*298 FILLER_7_0
*299 FILLER_7_26
*300 FILLER_7_28
*301 FILLER_7_4
*302 FILLER_7_41
*303 FILLER_7_43
*304 FILLER_7_53
*305 FILLER_7_60
*306 FILLER_7_96
*307 FILLER_8_0
*308 FILLER_8_11
*309 FILLER_8_114
*310 FILLER_8_47
*311 FILLER_8_49
*312 FILLER_8_64
*313 FILLER_8_66
*314 FILLER_8_7
*315 FILLER_8_81
*316 FILLER_9_0
*317 FILLER_9_101
*318 FILLER_9_19
*319 FILLER_9_23
*320 FILLER_9_35
*321 FILLER_9_46
*322 FILLER_9_62
*323 FILLER_9_73
*324 FILLER_9_75
*325 FILLER_9_80
*326 FILLER_9_82
*327 _130_
*328 _131_
*329 _132_
*330 _133_
*331 _134_
*332 _135_
*333 _136_
*334 _137_
*335 _138_
*336 _139_
*337 _140_
*338 _141_
*339 _142_
*340 _143_
*341 _144_
*342 _145_
*343 _146_
*344 _147_
*345 _148_
*346 _149_
*347 _150_
*348 _151_
*349 _152_
*350 _153_
*351 _154_
*352 _155_
*353 _156_
*354 _157_
*355 _158_
*356 _159_
*357 _160_
*358 _161_
*359 _162_
*360 _163_
*361 _164_
*362 _165_
*363 _166_
*364 _167_
*365 _168_
*366 _169_
*367 _170_
*368 _171_
*369 _172_
*370 _173_
*371 _174_
*372 _175_
*373 _176_
*374 _177_
*375 _178_
*376 _179_
*377 _180_
*378 _181_
*379 _182_
*380 _183_
*381 _184_
*382 _185_
*383 _186_
*384 _187_
*385 _188_
*386 _189_
*387 _190_
*388 _191_
*389 _192_
*390 _193_
*391 _194_
*392 _195_
*393 _196_
*394 _197_
*395 _198_
*396 _199_
*397 _200_
*398 _201_
*399 _202_
*400 _203_
*401 _204_
*402 _205_
*403 _206_
*404 _207_
*405 _208_
*406 _209_
*407 _210_
*408 _211_
*409 _212_
*410 _213_
*411 _214_
*412 _215_
*413 _216_
*414 _217_
*415 _218_
*416 _219_
*417 _220_
*418 _221_
*419 _222_
*420 _223_
*421 _224_
*422 _225_
*423 _226_
*424 _227_
*425 _228_
*426 _229_
*427 _230_
*428 _231_
*429 _232_
*430 _233_
*431 _234_
*432 _235_
*433 _236_
*434 _237_
*435 _238_
*436 _239_
*437 _240_
*438 _241_
*439 _242_
*440 _243_
*441 _244_
*442 _245_
*443 _246_
*444 _247_
*445 _248_
*446 _249_
*447 _250_
*448 _251_
*449 _252_
*450 _253_
*451 _254_
*452 _255_
*453 _256_
*454 _257_
*455 _258_
*456 _259_
*457 _260_
*458 _261_
*459 _262_
*460 _263_
*461 _264_
*462 _265_
*463 _266_
*464 _267_
*465 _268_
*466 _269_
*467 _270_
*468 _271_
*469 _272_
*470 _273_
*471 _274_
*472 _275_
*473 _276_
*474 _277_
*475 _278_
*476 _279_
*477 _280_
*478 _281_
*479 _282_
*480 _283_
*481 _284_
*482 _285_
*483 _286_
*484 _287_
*485 _288_
*486 _289_
*487 _290_
*488 _291_
*489 _292_
*490 _293_
*491 _294_
*492 _295_
*493 _296_
*494 clkbuf_0_clk
*495 clkbuf_1_0__f_clk
*496 clkbuf_1_1__f_clk
*497 clkload0
*498 fanout22
*499 fanout23
*500 fanout24
*501 fanout25
*502 fanout26
*503 fanout27
*504 fanout28
*505 fanout29
*506 fanout30
*507 fanout31
*508 fanout32
*509 fanout33
*510 fanout34
*511 fanout35
*512 fanout36
*513 fanout37
*514 fanout38
*515 fanout39
*516 fanout40
*517 fanout41
*518 fanout42
*519 hold43
*520 input1
*521 output10
*522 output11
*523 output12
*524 output13
*525 output14
*526 output15
*527 output16
*528 output17
*529 output18
*530 output19
*531 output2
*532 output20
*533 output21
*534 output3
*535 output4
*536 output5
*537 output6
*538 output7
*539 output8
*540 output9

*PORTS
clk I
rst I
sign O
signB O
sine_out[0] O
sine_out[10] O
sine_out[11] O
sine_out[12] O
sine_out[13] O
sine_out[14] O
sine_out[15] O
sine_out[16] O
sine_out[17] O
sine_out[1] O
sine_out[2] O
sine_out[3] O
sine_out[4] O
sine_out[5] O
sine_out[6] O
sine_out[7] O
sine_out[8] O
sine_out[9] O

*D_NET *3 0.0030239
*CONN
*P clk I
*I *494:A I *D sg13g2_buf_16
*CAP
1 clk 0.00143069
2 *494:A 8.12622e-05
3 *3:22 0.00151195
4 *494:A *360:B 0
5 *494:A *179:8 0
6 *3:22 *360:B 0
7 *3:22 *471:A 0
8 *3:22 *471:B 0
9 *3:22 *491:RESET_B 0
10 *3:22 *491:D 0
11 *3:22 *7:8 0
12 *3:22 *26:10 0
13 *3:22 *42:20 0
14 *3:22 *179:8 0
*RES
1 clk *3:22 15.8311 
2 *3:22 *494:A 20.9682 
*END

*D_NET *4 0.00497247
*CONN
*P rst I
*I *520:A I *D sg13g2_buf_1
*CAP
1 rst 0.00194782
2 *520:A 0.000378764
3 *4:17 0.00232659
4 *520:A *335:A1 0
5 *520:A *133:6 0
6 *520:A *200:38 0
7 *4:17 *332:A 0
8 *4:17 *333:A 0
9 *4:17 *486:RESET_B 4.75886e-05
10 *4:17 *488:RESET_B 0
11 *4:17 *30:10 0.000126859
12 *4:17 *34:10 0
13 *4:17 *131:10 0.000144849
14 *4:17 *175:18 0
15 *4:17 *190:16 0
16 *4:17 *190:26 0
17 *4:17 *211:14 0
*RES
1 rst *4:17 41.0738 
2 *4:17 *520:A 44.1612 
*END

*D_NET *5 0.00425039
*CONN
*P sign O
*I *531:X O *D sg13g2_buf_1
*CAP
1 sign 0.000837901
2 *531:X 0.000502257
3 *5:8 0.00134016
4 sign sine_out[0] 0
5 *5:8 sine_out[2] 0.00157007
6 *5:8 *524:A 0
7 *5:8 *19:14 0
8 *5:8 *26:10 0
9 *5:8 *180:18 0
*RES
1 *531:X *5:8 47.2718 
2 *5:8 sign 49.5326 
*END

*D_NET *6 0.00571599
*CONN
*P signB O
*I *534:X O *D sg13g2_buf_1
*CAP
1 signB 8.26433e-05
2 *534:X 0.000421802
3 *6:12 0.00243619
4 *6:8 0.00277535
5 *6:8 sine_out[10] 0
6 *6:8 sine_out[14] 0
7 *6:8 *472:A2 0
8 *6:8 *194:25 0
9 *6:12 sine_out[15] 0
10 *6:12 sine_out[5] 0
11 *6:12 *519:A 0
12 *6:12 *27:27 0
13 *6:12 *39:14 0
14 *6:12 *186:6 0
*RES
1 *534:X *6:8 44.5526 
2 *6:8 *6:12 47.1405 
3 *6:12 signB 20.9321 
*END

*D_NET *7 0.00225726
*CONN
*P sine_out[0] O
*I *535:X O *D sg13g2_buf_1
*CAP
1 sine_out[0] 0.000908762
2 *535:X 0.000219869
3 *7:8 0.00112863
4 sine_out[0] sine_out[2] 0
5 sign sine_out[0] 0
6 *3:22 *7:8 0
*RES
1 *535:X *7:8 42.4823 
2 *7:8 sine_out[0] 11.0674 
*END

*D_NET *8 0.000914761
*CONN
*P sine_out[10] O
*I *536:X O *D sg13g2_buf_1
*CAP
1 sine_out[10] 0.00038491
2 *536:X 0.00038491
3 sine_out[10] sine_out[12] 0
4 sine_out[10] sine_out[14] 0
5 sine_out[10] *174:61 0.000144942
6 *6:8 sine_out[10] 0
*RES
1 *536:X sine_out[10] 44.3723 
*END

*D_NET *9 0.00296893
*CONN
*P sine_out[11] O
*I *537:X O *D sg13g2_buf_1
*CAP
1 sine_out[11] 0.000697652
2 *537:X 0.00050391
3 *9:8 0.00120156
4 sine_out[11] sine_out[7] 0
5 sine_out[11] sine_out[9] 0
6 *9:8 *22:10 0.000565802
7 *9:8 *24:8 0
*RES
1 *537:X *9:8 45.9431 
2 *9:8 sine_out[11] 8.59535 
*END

*D_NET *10 0.000927199
*CONN
*P sine_out[12] O
*I *538:X O *D sg13g2_buf_1
*CAP
1 sine_out[12] 0.000463599
2 *538:X 0.000463599
3 sine_out[12] sine_out[8] 0
4 sine_out[12] *536:A 0
5 sine_out[12] *538:A 0
6 sine_out[12] *125:26 0
7 sine_out[10] sine_out[12] 0
*RES
1 *538:X sine_out[12] 45.2375 
*END

*D_NET *11 0.0017549
*CONN
*P sine_out[13] O
*I *539:X O *D sg13g2_buf_1
*CAP
1 sine_out[13] 0.000571654
2 *539:X 0.000257921
3 *11:12 0.000829575
4 sine_out[13] sine_out[7] 0
5 sine_out[13] sine_out[8] 0
6 sine_out[13] *460:A1 4.79124e-05
7 *11:12 sine_out[8] 0
8 *11:12 *530:A 4.78356e-05
9 *11:12 *539:A 0
10 *11:12 *124:10 0
*RES
1 *539:X *11:12 42.6883 
2 *11:12 sine_out[13] 46.7207 
*END

*D_NET *12 0.000841643
*CONN
*P sine_out[14] O
*I *540:X O *D sg13g2_buf_1
*CAP
1 sine_out[14] 0.000420821
2 *540:X 0.000420821
3 sine_out[14] sine_out[5] 0
4 sine_out[10] sine_out[14] 0
5 *6:8 sine_out[14] 0
*RES
1 *540:X sine_out[14] 44.7122 
*END

*D_NET *13 0.00628572
*CONN
*P sine_out[15] O
*I *521:X O *D sg13g2_buf_1
*CAP
1 sine_out[15] 0.000737932
2 *521:X 0.00018379
3 *13:18 0.00139114
4 *13:10 0.000836995
5 sine_out[15] sine_out[3] 0.000659046
6 sine_out[15] sine_out[4] 0
7 sine_out[15] sine_out[6] 0
8 sine_out[15] *27:27 0.000435147
9 sine_out[15] *39:14 0
10 *13:10 *149:8 0.000285836
11 *13:10 *150:10 0.000124862
12 *13:10 *151:12 0.000493483
13 *13:10 *159:16 8.01773e-05
14 *13:10 *176:14 0
15 *13:10 *191:22 0
16 *13:18 *355:A 8.01773e-05
17 *13:18 *455:B 0.000444558
18 *13:18 *150:10 0.000281059
19 *13:18 *151:12 0
20 *13:18 *153:12 0
21 *13:18 *189:38 0
22 *13:18 *189:63 7.30101e-05
23 *13:18 *191:22 0.00017851
24 *6:12 sine_out[15] 0
*RES
1 *521:X *13:10 42.8634 
2 *13:10 *13:18 47.0658 
3 *13:18 sine_out[15] 48.4202 
*END

*D_NET *14 0.00071581
*CONN
*P sine_out[16] O
*I *522:X O *D sg13g2_buf_1
*CAP
1 sine_out[16] 0.000333979
2 *522:X 0.000333979
3 sine_out[16] sine_out[17] 0
4 sine_out[16] sine_out[5] 0
5 sine_out[16] *184:20 4.78524e-05
*RES
1 *522:X sine_out[16] 43.7234 
*END

*D_NET *15 0.00134231
*CONN
*P sine_out[17] O
*I *523:X O *D sg13g2_buf_1
*CAP
1 sine_out[17] 0.000494886
2 *523:X 0.000494886
3 sine_out[17] sine_out[3] 0
4 sine_out[17] *174:61 0.000144767
5 sine_out[17] *191:8 0.00012816
6 sine_out[17] *192:57 7.96143e-05
7 sine_out[17] *196:74 0
8 sine_out[16] sine_out[17] 0
*RES
1 *523:X sine_out[17] 45.3611 
*END

*D_NET *16 0.00562967
*CONN
*P sine_out[1] O
*I *524:X O *D sg13g2_buf_1
*CAP
1 sine_out[1] 0.00149228
2 *524:X 0.000123484
3 *16:8 0.00161576
4 sine_out[1] sine_out[2] 0
5 sine_out[1] sine_out[4] 0
6 sine_out[1] *531:A 0.000603208
7 sine_out[1] *37:8 0
8 sine_out[1] *174:36 0
9 sine_out[1] *176:10 0.000392401
10 sine_out[1] *182:20 0
11 sine_out[1] *186:10 0.00140254
12 sine_out[1] *212:8 0
13 *16:8 *527:A 0
14 *16:8 *141:18 0
*RES
1 *524:X *16:8 40.9682 
2 *16:8 sine_out[1] 16.753 
*END

*D_NET *17 0.00342887
*CONN
*P sine_out[2] O
*I *525:X O *D sg13g2_buf_1
*CAP
1 sine_out[2] 0.000905203
2 *525:X 2.41961e-05
3 *17:8 0.000929399
4 sine_out[2] *524:A 0
5 sine_out[2] *186:10 0
6 sine_out[0] sine_out[2] 0
7 sine_out[1] sine_out[2] 0
8 *5:8 sine_out[2] 0.00157007
*RES
1 *525:X *17:8 40.3193 
2 *17:8 sine_out[2] 13.0449 
*END

*D_NET *18 0.00230721
*CONN
*P sine_out[3] O
*I *526:X O *D sg13g2_buf_1
*CAP
1 sine_out[3] 0.000784216
2 *526:X 0.000784216
3 sine_out[3] sine_out[6] 0
4 sine_out[3] *39:14 7.97286e-05
5 sine_out[15] sine_out[3] 0.000659046
6 sine_out[17] sine_out[3] 0
*RES
1 *526:X sine_out[3] 48.1525 
*END

*D_NET *19 0.00758666
*CONN
*P sine_out[4] O
*I *527:X O *D sg13g2_buf_1
*CAP
1 sine_out[4] 0.000411674
2 *527:X 4.08652e-05
3 *19:14 0.00141025
4 *19:8 0.00103944
5 sine_out[4] *181:8 0
6 *19:8 *527:A 0
7 *19:14 *519:A 0
8 *19:14 *524:A 0
9 *19:14 *142:8 0.000341119
10 *19:14 *180:18 0.0015086
11 *19:14 *182:16 0.000144971
12 *19:14 *182:20 0.00268973
13 *19:14 *186:6 0
14 *19:14 *186:10 0
15 sine_out[15] sine_out[4] 0
16 sine_out[1] sine_out[4] 0
17 *5:8 *19:14 0
*RES
1 *527:X *19:8 40.3193 
2 *19:8 *19:14 35.8723 
3 *19:14 sine_out[4] 24.8874 
*END

*D_NET *20 0.000769614
*CONN
*P sine_out[5] O
*I *528:X O *D sg13g2_buf_1
*CAP
1 sine_out[5] 0.000344693
2 *528:X 0.000344693
3 sine_out[5] *174:61 8.02276e-05
4 sine_out[14] sine_out[5] 0
5 sine_out[16] sine_out[5] 0
6 *6:12 sine_out[5] 0
*RES
1 *528:X sine_out[5] 43.9398 
*END

*D_NET *21 0.00143732
*CONN
*P sine_out[6] O
*I *529:X O *D sg13g2_buf_1
*CAP
1 sine_out[6] 0.000718658
2 *529:X 0.000718658
3 sine_out[6] *27:12 0
4 sine_out[6] *27:27 0
5 sine_out[6] *39:14 0
6 sine_out[6] *182:16 0
7 sine_out[6] *184:20 0
8 sine_out[15] sine_out[6] 0
9 sine_out[3] sine_out[6] 0
*RES
1 *529:X sine_out[6] 46.8753 
*END

*D_NET *22 0.00300952
*CONN
*P sine_out[7] O
*I *530:X O *D sg13g2_buf_1
*CAP
1 sine_out[7] 0.000702586
2 *530:X 0.000479088
3 *22:10 0.00118167
4 *22:10 *530:A 8.03692e-05
5 *22:10 *533:A 0
6 *22:10 *539:A 0
7 sine_out[11] sine_out[7] 0
8 sine_out[13] sine_out[7] 0
9 *9:8 *22:10 0.000565802
*RES
1 *530:X *22:10 45.7062 
2 *22:10 sine_out[7] 8.34815 
*END

*D_NET *23 0.000797653
*CONN
*P sine_out[8] O
*I *532:X O *D sg13g2_buf_1
*CAP
1 sine_out[8] 0.000398826
2 *532:X 0.000398826
3 sine_out[8] *464:A 0
4 sine_out[12] sine_out[8] 0
5 sine_out[13] sine_out[8] 0
6 *11:12 sine_out[8] 0
*RES
1 *532:X sine_out[8] 44.7122 
*END

*D_NET *24 0.00293387
*CONN
*P sine_out[9] O
*I *533:X O *D sg13g2_buf_1
*CAP
1 sine_out[9] 0.000772234
2 *533:X 0.0006947
3 *24:8 0.00146693
4 sine_out[11] sine_out[9] 0
5 *9:8 *24:8 0
*RES
1 *533:X *24:8 48.1061 
2 *24:8 sine_out[9] 9.58415 
*END

*D_NET *25 0.00209828
*CONN
*I *493:D I *D sg13g2_dfrbpq_1
*I *368:X O *D sg13g2_and2_1
*CAP
1 *493:D 0
2 *368:X 0.000327573
3 *25:8 0.000327573
4 *25:8 *400:B1 0.000288675
5 *25:8 *432:A1 0.000232977
6 *25:8 *27:12 0
7 *25:8 *35:69 0
8 *25:8 *154:31 0.000921482
*RES
1 *368:X *25:8 45.047 
2 *25:8 *493:D 40 
*END

*D_NET *26 0.000970791
*CONN
*I *492:D I *D sg13g2_dfrbpq_1
*I *360:Y O *D sg13g2_xnor2_1
*CAP
1 *492:D 0
2 *360:Y 0.000447787
3 *26:10 0.000447787
4 *26:10 *492:CLK 0
5 *26:10 *42:20 7.52158e-05
6 *26:10 *180:18 0
7 *3:22 *26:10 0
8 *5:8 *26:10 0
*RES
1 *360:Y *26:10 43.9449 
2 *26:10 *492:D 40 
*END

*D_NET *27 0.00710304
*CONN
*I *500:A I *D sg13g2_buf_1
*I *499:A I *D sg13g2_buf_1
*I *493:Q O *D sg13g2_dfrbpq_1
*CAP
1 *500:A 0
2 *499:A 0
3 *493:Q 0
4 *27:27 0.000507122
5 *27:12 0.00205971
6 *27:6 0.00256683
7 *27:12 *358:A 0
8 *27:12 *389:B1 4.63397e-05
9 *27:12 *403:A 0
10 *27:12 *432:A1 0
11 *27:12 *511:A 0
12 *27:12 *31:8 0
13 *27:12 *35:12 0
14 *27:12 *35:69 0
15 *27:12 *41:29 0.000391119
16 *27:12 *129:22 0
17 *27:12 *174:10 0
18 *27:12 *175:31 0
19 *27:12 *189:18 0
20 *27:12 *189:38 0
21 *27:12 *190:8 0
22 *27:12 *190:105 0
23 *27:12 *192:71 0
24 *27:12 *203:33 0
25 *27:12 *207:106 0
26 *27:12 *209:24 0.000971754
27 *27:12 *211:82 0.000125014
28 *27:27 *39:14 0
29 sine_out[15] *27:27 0.000435147
30 sine_out[6] *27:12 0
31 sine_out[6] *27:27 0
32 *6:12 *27:27 0
33 *25:8 *27:12 0
*RES
1 *493:Q *27:6 40 
2 *27:6 *27:12 39.7966 
3 *27:12 *499:A 20 
4 *27:6 *27:27 45.253 
5 *27:27 *500:A 40 
*END

*D_NET *28 0.00163331
*CONN
*I *517:A I *D sg13g2_buf_1
*I *485:Q O *D sg13g2_dfrbpq_1
*CAP
1 *517:A 0.00012043
2 *485:Q 0.000211893
3 *28:8 0.000332322
4 *517:A *476:A 0.000207507
5 *517:A *204:84 0.000207496
6 *28:8 *333:B 0
7 *28:8 *41:29 0.000553661
8 *28:8 *203:20 0
*RES
1 *485:Q *28:8 42.575 
2 *28:8 *517:A 41.4008 
*END

*D_NET *29 0.00395823
*CONN
*I *515:A I *D sg13g2_buf_1
*I *486:Q O *D sg13g2_dfrbpq_1
*CAP
1 *515:A 0.000614474
2 *486:Q 0.000289916
3 *29:10 0.00090439
4 *515:A *390:B 0
5 *515:A *404:A1 0
6 *515:A *404:A2 0
7 *515:A *405:B1 0
8 *515:A *412:B1 0
9 *515:A *489:RESET_B 0
10 *515:A *41:63 0
11 *515:A *60:6 0
12 *515:A *84:10 0
13 *515:A *189:18 0.000433812
14 *515:A *199:12 0.000143918
15 *515:A *207:8 4.77425e-05
16 *515:A *207:91 0
17 *515:A *208:10 0
18 *515:A *211:98 0
19 *29:10 *190:8 0
20 *29:10 *190:92 0
21 *29:10 *190:105 0.00060727
22 *29:10 *199:12 0.000238494
23 *29:10 *199:14 0.000343057
24 *29:10 *199:28 0.000335159
*RES
1 *486:Q *29:10 44.5938 
2 *29:10 *515:A 46.5302 
*END

*D_NET *30 0.000873152
*CONN
*I *486:D I *D sg13g2_dfrbpq_1
*I *476:Y O *D sg13g2_xnor2_1
*CAP
1 *486:D 0
2 *476:Y 0.000165516
3 *30:10 0.000165516
4 *30:10 *175:18 0.000207708
5 *30:10 *204:84 0.000207554
6 *4:17 *30:10 0.000126859
*RES
1 *476:Y *30:10 41.9982 
2 *30:10 *486:D 40 
*END

*D_NET *31 0.0112791
*CONN
*I *430:A1 I *D sg13g2_a221oi_1
*I *473:A_N I *D sg13g2_nand2b_1
*I *407:B I *D sg13g2_nor2_1
*I *513:A I *D sg13g2_buf_1
*I *487:Q O *D sg13g2_dfrbpq_1
*CAP
1 *430:A1 0
2 *473:A_N 0.000384468
3 *407:B 0.000808511
4 *513:A 0
5 *487:Q 0.000699958
6 *31:37 0.00145887
7 *31:33 0.0011361
8 *31:16 0.00145205
9 *31:8 0.00128179
10 *407:B *406:B1 0.000789818
11 *407:B *407:A 3.23417e-05
12 *407:B *465:B1 0
13 *407:B *466:B 0
14 *407:B *159:16 0.000919271
15 *473:A_N *406:A1 0
16 *473:A_N *410:C 7.52158e-05
17 *473:A_N *444:A1 0.000422514
18 *473:A_N *473:B 0.000177203
19 *473:A_N *501:A 0
20 *473:A_N *72:25 0
21 *473:A_N *97:14 0
22 *473:A_N *186:31 0
23 *31:8 *345:B1 0
24 *31:8 *404:A2 0
25 *31:8 *485:D 0.000144765
26 *31:8 *495:A 0
27 *31:8 *41:50 9.55513e-05
28 *31:8 *141:10 0
29 *31:8 *172:15 0
30 *31:8 *190:8 0
31 *31:8 *190:92 0
32 *31:16 *512:A 0
33 *31:16 *56:36 0.000212288
34 *31:16 *74:20 0.000212289
35 *31:16 *75:16 0.000126047
36 *31:16 *102:12 0
37 *31:33 *413:A2 0
38 *31:33 *512:A 0
39 *31:33 *102:12 0
40 *31:33 *112:18 0
41 *31:33 *148:50 0.000181279
42 *31:33 *162:34 0
43 *31:33 *205:27 0
44 *31:33 *210:106 0.000306569
45 *31:33 *211:131 0
46 *31:37 *406:A1 0
47 *31:37 *410:C 0.000287342
48 *31:37 *162:34 7.48209e-05
49 *31:37 *209:47 0
50 *31:37 *211:131 0
51 *27:12 *31:8 0
*RES
1 *487:Q *31:8 46.8083 
2 *31:8 *31:16 45.5208 
3 *31:16 *513:A 40 
4 *31:16 *31:33 47.6941 
5 *31:33 *31:37 2.8943 
6 *31:37 *407:B 48.8065 
7 *31:37 *473:A_N 44.3981 
8 *31:33 *430:A1 40 
*END

*D_NET *32 0.000652332
*CONN
*I *487:D I *D sg13g2_dfrbpq_1
*I *475:X O *D sg13g2_xor2_1
*CAP
1 *487:D 0
2 *475:X 0.00025415
3 *32:12 0.00025415
4 *32:12 *332:B 0
5 *32:12 *34:10 1.54556e-05
6 *32:12 *131:10 0.000128576
7 *32:12 *175:18 0
8 *32:12 *211:8 0
*RES
1 *475:X *32:12 42.6265 
2 *32:12 *487:D 40 
*END

*D_NET *33 0.00334147
*CONN
*I *511:A I *D sg13g2_buf_1
*I *488:Q O *D sg13g2_dfrbpq_1
*CAP
1 *511:A 0.000351941
2 *488:Q 0.000531897
3 *33:18 0.000924223
4 *33:10 0.00110418
5 *511:A *431:D 0
6 *511:A *487:RESET_B 0.000429228
7 *511:A *44:10 0
8 *511:A *211:14 0
9 *33:10 *344:A 0
10 *33:10 *47:10 0
11 *33:10 *173:24 0
12 *27:12 *511:A 0
*RES
1 *488:Q *33:10 45.1809 
2 *33:10 *33:18 44.7792 
3 *33:18 *511:A 43.6977 
*END

*D_NET *34 0.00115052
*CONN
*I *488:D I *D sg13g2_dfrbpq_1
*I *340:X O *D sg13g2_xor2_1
*CAP
1 *488:D 0
2 *340:X 0.000360168
3 *34:10 0.000360168
4 *34:10 *139:8 0
5 *34:10 *175:18 0.000414724
6 *34:10 *211:8 0
7 *4:17 *34:10 0
8 *32:12 *34:10 1.54556e-05
*RES
1 *340:X *34:10 43.8213 
2 *34:10 *488:D 40 
*END

*D_NET *35 0.0120873
*CONN
*I *507:A I *D sg13g2_buf_1
*I *467:B_N I *D sg13g2_nor2b_1
*I *506:A I *D sg13g2_buf_1
*I *356:A I *D sg13g2_or2_1
*I *489:Q O *D sg13g2_dfrbpq_1
*CAP
1 *507:A 0
2 *467:B_N 0.000289671
3 *506:A 0.000470349
4 *356:A 3.03095e-05
5 *489:Q 0.000239008
6 *35:69 0.000516292
7 *35:52 0.000660142
8 *35:29 0.00105951
9 *35:14 0.00070296
10 *35:12 0.00128938
11 *35:6 0.00159072
12 *356:A *453:B 0
13 *467:B_N *448:B1 0
14 *467:B_N *450:B1 0.000306963
15 *467:B_N *193:27 0.000241979
16 *467:B_N *193:31 0.000258287
17 *506:A *452:B 0.000159113
18 *506:A *42:8 0.000761168
19 *506:A *70:29 0
20 *506:A *72:29 2.18755e-05
21 *506:A *129:8 0.000651689
22 *506:A *159:16 4.77425e-05
23 *506:A *217:8 0.000177499
24 *35:6 *351:A 4.74248e-05
25 *35:6 *351:B 0
26 *35:6 *196:35 0
27 *35:12 *145:8 7.43655e-05
28 *35:12 *154:31 0
29 *35:12 *172:44 0
30 *35:12 *174:10 0
31 *35:14 *453:B 0.000691309
32 *35:14 *182:16 0
33 *35:14 *192:71 0.000562675
34 *35:29 *356:B 4.77425e-05
35 *35:29 *470:A 0
36 *35:29 *151:12 4.77425e-05
37 *35:29 *151:25 0.000192723
38 *35:52 *112:18 0
39 *35:52 *151:25 0
40 *35:52 *180:10 0
41 *35:52 *189:80 0
42 *35:52 *193:27 7.33225e-05
43 *35:69 *351:A 0.000176367
44 *35:69 *400:B1 0.000500323
45 *35:69 *176:14 0
46 *35:69 *196:35 0
47 *35:69 *205:27 7.34121e-05
48 *35:69 *211:82 0.000125261
49 *25:8 *35:69 0
50 *27:12 *35:12 0
51 *27:12 *35:69 0
*RES
1 *489:Q *35:6 22.266 
2 *35:6 *35:12 47.0246 
3 *35:12 *35:14 5.0779 
4 *35:14 *356:A 20.3502 
5 *35:14 *35:29 22.5029 
6 *35:29 *506:A 46.5302 
7 *35:29 *35:52 43.296 
8 *35:52 *467:B_N 43.3475 
9 *35:6 *35:69 45.459 
10 *35:69 *507:A 20 
*END

*D_NET *36 0.000655079
*CONN
*I *489:D I *D sg13g2_dfrbpq_1
*I *344:X O *D sg13g2_xor2_1
*CAP
1 *489:D 9.3845e-05
2 *344:X 5.63527e-05
3 *36:8 0.000150198
4 *489:D *345:B1 0.000177388
5 *489:D *141:10 0.000177295
6 *36:8 *173:24 0
*RES
1 *344:X *36:8 40.5974 
2 *36:8 *489:D 41.1845 
*END

*D_NET *37 0.00455435
*CONN
*I *505:A I *D sg13g2_buf_1
*I *490:Q O *D sg13g2_dfrbpq_1
*CAP
1 *505:A 0.000475444
2 *490:Q 0.0007002
3 *37:8 0.00117564
4 *505:A *349:A1 0
5 *505:A *489:RESET_B 1.53099e-05
6 *505:A *141:18 0
7 *505:A *143:10 0
8 *505:A *196:8 0
9 *37:8 *346:A 0.000234726
10 *37:8 *350:B 0
11 *37:8 *174:36 0.000657423
12 *37:8 *176:10 0.000391901
13 *37:8 *191:43 0.000903706
14 sine_out[1] *37:8 0
*RES
1 *490:Q *37:8 48.755 
2 *37:8 *505:A 43.9964 
*END

*D_NET *38 0.000860098
*CONN
*I *490:D I *D sg13g2_dfrbpq_1
*I *348:X O *D sg13g2_xor2_1
*CAP
1 *490:D 0.000366122
2 *348:X 0.000366122
3 *490:D *348:B 0
4 *490:D *483:A 8.01116e-05
5 *490:D *490:RESET_B 4.77425e-05
6 *490:D *180:18 0
7 *490:D *211:98 0
*RES
1 *348:X *490:D 43.5329 
*END

*D_NET *39 0.00757766
*CONN
*I *503:A I *D sg13g2_buf_1
*I *474:B I *D sg13g2_nand3_1
*I *501:A I *D sg13g2_buf_1
*I *491:Q O *D sg13g2_dfrbpq_1
*CAP
1 *503:A 0.000326175
2 *474:B 3.34444e-05
3 *501:A 0.000798659
4 *491:Q 0.00109482
5 *39:20 0.00101287
6 *39:18 0.000646912
7 *39:14 0.00123478
8 *474:B *217:20 4.77425e-05
9 *501:A *327:A 8.01118e-05
10 *501:A *452:B 0.000180645
11 *501:A *42:8 0
12 *501:A *72:25 0
13 *501:A *72:29 0.000437644
14 *501:A *114:8 0
15 *501:A *149:16 0.000271976
16 *501:A *159:16 0
17 *501:A *217:8 0.00022762
18 *503:A *472:A1 0
19 *503:A *174:61 1.54008e-05
20 *503:A *177:10 0.000177334
21 *503:A *184:12 0.000306701
22 *503:A *194:14 0.000209637
23 *503:A *194:25 8.01064e-05
24 *39:14 *182:16 0
25 *39:14 *184:20 0.000263813
26 *39:20 *178:8 0
27 *39:20 *193:10 0
28 *39:20 *193:12 0
29 *39:20 *217:8 5.15366e-05
30 sine_out[15] *39:14 0
31 sine_out[3] *39:14 7.97286e-05
32 sine_out[6] *39:14 0
33 *473:A_N *501:A 0
34 *6:12 *39:14 0
35 *27:27 *39:14 0
*RES
1 *491:Q *39:14 28.7666 
2 *39:14 *39:18 21.339 
3 *39:18 *39:20 1.5862 
4 *39:20 *501:A 47.7662 
5 *39:20 *474:B 40.3193 
6 *39:18 *503:A 43.5638 
*END

*D_NET *40 0.0019728
*CONN
*I *491:D I *D sg13g2_dfrbpq_1
*I *351:Y O *D sg13g2_xnor2_1
*CAP
1 *491:D 5.49787e-05
2 *351:Y 0.000496957
3 *40:12 0.000551936
4 *491:D *179:8 0
5 *40:12 *350:B 0
6 *40:12 *172:44 0
7 *40:12 *176:14 0.000434518
8 *40:12 *191:37 0.000434408
9 *40:12 *192:77 0
10 *3:22 *491:D 0
*RES
1 *351:Y *40:12 45.3148 
2 *40:12 *491:D 40.5356 
*END

*D_NET *41 0.0192079
*CONN
*I *383:A2 I *D sg13g2_a21oi_1
*I *352:B I *D sg13g2_nor2_1
*I *355:A I *D sg13g2_nor2_1
*I *456:A I *D sg13g2_nor2_1
*I *409:A2 I *D sg13g2_o21ai_1
*I *388:A I *D sg13g2_xnor2_1
*I *485:D I *D sg13g2_dfrbpq_1
*I *335:A1 I *D sg13g2_o21ai_1
*I *329:Y O *D sg13g2_inv_1
*CAP
1 *383:A2 0
2 *352:B 0
3 *355:A 0.000543436
4 *456:A 0
5 *409:A2 0
6 *388:A 3.10612e-05
7 *485:D 7.77008e-05
8 *335:A1 0.000223891
9 *329:Y 2.77263e-05
10 *41:116 8.25133e-05
11 *41:110 0.000299194
12 *41:88 0.000443394
13 *41:73 0.000581733
14 *41:69 0.000771064
15 *41:63 0.00152994
16 *41:50 0.000773992
17 *41:29 0.00141825
18 *41:12 0.00201413
19 *41:6 0.00108326
20 *335:A1 *335:A2 0
21 *335:A1 *132:8 0
22 *335:A1 *200:38 7.99828e-05
23 *355:A *355:B 0
24 *355:A *149:8 0
25 *355:A *154:10 0
26 *355:A *159:16 0
27 *355:A *189:38 0.000179394
28 *355:A *191:22 0.000124859
29 *355:A *208:10 0.000530946
30 *355:A *209:8 0.000181387
31 *388:A *388:B 1.54008e-05
32 *388:A *189:18 4.77425e-05
33 *485:D *56:53 0.000144765
34 *41:12 *362:B 0.000242138
35 *41:12 *415:B1 0
36 *41:12 *476:A 0
37 *41:12 *514:A 0.000338604
38 *41:12 *175:10 4.72314e-05
39 *41:12 *200:38 0
40 *41:12 *201:54 0
41 *41:12 *206:62 0
42 *41:12 *207:34 0.000901016
43 *41:29 *44:10 0
44 *41:29 *132:8 0
45 *41:29 *175:10 0
46 *41:29 *175:31 0
47 *41:29 *203:20 0
48 *41:29 *203:33 0.000760079
49 *41:50 *56:30 2.19369e-05
50 *41:50 *56:53 0.000195171
51 *41:50 *77:8 0.000287127
52 *41:50 *200:92 0.000550147
53 *41:63 *84:10 0
54 *41:63 *149:8 0
55 *41:63 *189:18 6.45462e-05
56 *41:63 *207:91 0.00012816
57 *41:63 *208:10 0.000598909
58 *41:63 *211:74 0
59 *41:69 *99:14 0
60 *41:69 *196:39 0.000178556
61 *41:69 *196:96 0.000803287
62 *41:73 *409:B1 1.54008e-05
63 *41:73 *409:A1 1.54008e-05
64 *41:73 *81:6 0
65 *41:73 *158:8 0
66 *41:73 *196:107 0
67 *41:88 *378:B 1.54008e-05
68 *41:88 *409:B1 8.00842e-05
69 *41:88 *409:A1 6.47768e-05
70 *41:88 *97:22 0.000978747
71 *41:88 *194:31 0
72 *41:88 *195:26 0
73 *41:110 *383:A1 1.54008e-05
74 *41:110 *201:54 0
75 *41:110 *207:34 0.000306607
76 *41:110 *210:52 0
77 *41:116 *147:10 0
78 *41:116 *204:43 0.00012816
79 *515:A *41:63 0
80 *520:A *335:A1 0
81 *13:18 *355:A 8.01773e-05
82 *27:12 *41:29 0.000391119
83 *28:8 *41:29 0.000553661
84 *31:8 *485:D 0.000144765
85 *31:8 *41:50 9.55513e-05
*RES
1 *329:Y *41:6 20.3502 
2 *41:6 *41:12 29.3524 
3 *41:12 *335:A1 42.163 
4 *41:12 *41:29 30.4854 
5 *41:29 *485:D 20.9682 
6 *41:29 *41:50 45.2427 
7 *41:50 *388:A 20.3193 
8 *41:50 *41:63 23.7904 
9 *41:63 *41:69 47.4572 
10 *41:69 *41:73 21.1845 
11 *41:73 *409:A2 20 
12 *41:73 *41:88 45.6238 
13 *41:88 *456:A 20 
14 *41:63 *355:A 45.9431 
15 *41:6 *41:110 2.266 
16 *41:110 *41:116 41.0918 
17 *41:116 *352:B 20 
18 *41:110 *383:A2 20 
*END

*D_NET *42 0.00607407
*CONN
*I *492:RESET_B I *D sg13g2_dfrbpq_1
*I *331:Y O *D sg13g2_inv_1
*CAP
1 *492:RESET_B 0
2 *331:Y 0.000406543
3 *42:20 7.21239e-05
4 *42:12 0.00133616
5 *42:8 0.00167058
6 *42:8 *401:A1 0
7 *42:8 *516:A 0
8 *42:8 *70:29 0
9 *42:8 *72:29 0.000391297
10 *42:8 *82:12 0.000497996
11 *42:8 *102:12 0
12 *42:12 *43:14 0.000862996
13 *42:12 *50:16 0
14 *42:12 *180:10 0
15 *42:12 *186:25 0
16 *42:12 *189:63 0
17 *42:20 *180:18 0
18 *501:A *42:8 0
19 *506:A *42:8 0.000761168
20 *3:22 *42:20 0
21 *26:10 *42:20 7.52158e-05
*RES
1 *331:Y *42:8 45.7886 
2 *42:8 *42:12 33.5136 
3 *42:12 *42:20 40.6695 
4 *42:20 *492:RESET_B 20 
*END

*D_NET *43 0.00422497
*CONN
*I *493:RESET_B I *D sg13g2_dfrbpq_1
*I *477:Y O *D sg13g2_inv_1
*CAP
1 *493:RESET_B 2.99917e-05
2 *477:Y 0.000171308
3 *43:14 0.000907229
4 *43:8 0.00104855
5 *493:RESET_B *366:A 1.54008e-05
6 *493:RESET_B *367:A2 4.78195e-05
7 *493:RESET_B *154:10 0
8 *43:8 *112:18 0.000441733
9 *43:8 *198:27 0
10 *43:14 *50:16 0.000699946
11 *43:14 *72:35 0
12 *43:14 *97:20 0
13 *43:14 *149:27 0
14 *43:14 *186:25 0
15 *42:12 *43:14 0.000862996
*RES
1 *477:Y *43:8 42.0806 
2 *43:8 *43:14 49.4039 
3 *43:14 *493:RESET_B 40.3193 
*END

*D_NET *44 0.00144225
*CONN
*I *485:RESET_B I *D sg13g2_dfrbpq_1
*I *478:Y O *D sg13g2_inv_1
*CAP
1 *485:RESET_B 0
2 *478:Y 0.000721124
3 *44:10 0.000721124
4 *44:10 *199:28 0
5 *44:10 *203:20 0
6 *44:10 *211:14 0
7 *511:A *44:10 0
8 *41:29 *44:10 0
*RES
1 *478:Y *44:10 46.1697 
2 *44:10 *485:RESET_B 40 
*END

*D_NET *45 0.0011969
*CONN
*I *486:RESET_B I *D sg13g2_dfrbpq_1
*I *479:Y O *D sg13g2_inv_1
*CAP
1 *486:RESET_B 0.000326105
2 *479:Y 0.000326105
3 *486:RESET_B *333:A 0
4 *486:RESET_B *333:B 0
5 *486:RESET_B *199:28 0.000497103
6 *486:RESET_B *206:16 0
7 *4:17 *486:RESET_B 4.75886e-05
*RES
1 *479:Y *486:RESET_B 43.3475 
*END

*D_NET *46 0.00276294
*CONN
*I *487:RESET_B I *D sg13g2_dfrbpq_1
*I *480:Y O *D sg13g2_inv_1
*CAP
1 *487:RESET_B 0.00087931
2 *480:Y 0.00087931
3 *487:RESET_B *485:CLK 0
4 *487:RESET_B *486:CLK 0.000237791
5 *487:RESET_B *488:RESET_B 0
6 *487:RESET_B *173:33 0
7 *487:RESET_B *203:12 6.3946e-05
8 *487:RESET_B *203:20 0.000273354
9 *487:RESET_B *211:14 0
10 *511:A *487:RESET_B 0.000429228
*RES
1 *480:Y *487:RESET_B 49.0743 
*END

*D_NET *47 0.00363273
*CONN
*I *488:RESET_B I *D sg13g2_dfrbpq_1
*I *481:Y O *D sg13g2_inv_1
*CAP
1 *488:RESET_B 0.000257519
2 *481:Y 0.00100209
3 *47:10 0.00125961
4 *488:RESET_B *488:CLK 0
5 *488:RESET_B *211:14 0.00030715
6 *47:10 *485:CLK 0.000596712
7 *47:10 *173:24 0
8 *47:10 *173:33 0.000209637
9 *47:10 *190:8 0
10 *47:10 *203:20 0
11 *487:RESET_B *488:RESET_B 0
12 *4:17 *488:RESET_B 0
13 *33:10 *47:10 0
*RES
1 *481:Y *47:10 49.6305 
2 *47:10 *488:RESET_B 42.4944 
*END

*D_NET *48 0.00122637
*CONN
*I *489:RESET_B I *D sg13g2_dfrbpq_1
*I *482:Y O *D sg13g2_inv_1
*CAP
1 *489:RESET_B 0.00053357
2 *482:Y 0.00053357
3 *489:RESET_B *141:10 0
4 *489:RESET_B *196:8 0
5 *489:RESET_B *199:12 0.000143918
6 *489:RESET_B *211:98 0
7 *505:A *489:RESET_B 1.53099e-05
8 *515:A *489:RESET_B 0
*RES
1 *482:Y *489:RESET_B 45.6032 
*END

*D_NET *49 0.000583884
*CONN
*I *490:RESET_B I *D sg13g2_dfrbpq_1
*I *483:Y O *D sg13g2_inv_1
*CAP
1 *490:RESET_B 0.000268071
2 *483:Y 0.000268071
3 *490:RESET_B *531:A 0
4 *490:RESET_B *180:18 0
5 *490:D *490:RESET_B 4.77425e-05
*RES
1 *483:Y *490:RESET_B 42.4617 
*END

*D_NET *50 0.00304459
*CONN
*I *491:RESET_B I *D sg13g2_dfrbpq_1
*I *484:Y O *D sg13g2_inv_1
*CAP
1 *491:RESET_B 3.41515e-05
2 *484:Y 0.00012263
3 *50:16 0.000921787
4 *50:10 0.00101026
5 *491:RESET_B *360:B 0
6 *50:10 *149:16 0
7 *50:10 *192:42 0.00012757
8 *50:10 *196:47 0.000128245
9 *50:16 *175:31 0
10 *50:16 *186:25 0
11 *3:22 *491:RESET_B 0
12 *42:12 *50:16 0
13 *43:14 *50:16 0.000699946
*RES
1 *484:Y *50:10 41.3493 
2 *50:10 *50:16 48.5387 
3 *50:16 *491:RESET_B 40.3193 
*END

*D_NET *51 0.000583374
*CONN
*I *380:A2 I *D sg13g2_a21oi_1
*I *379:Y O *D sg13g2_o21ai_1
*CAP
1 *380:A2 0.000243944
2 *379:Y 0.000243944
3 *380:A2 *396:B_N 1.54008e-05
4 *380:A2 *158:22 0
5 *380:A2 *167:10 8.00842e-05
6 *380:A2 *201:10 0
*RES
1 *379:Y *380:A2 42.266 
*END

*D_NET *52 0.0018726
*CONN
*I *395:B I *D sg13g2_nor4_1
*I *380:Y O *D sg13g2_a21oi_1
*CAP
1 *395:B 0.000252305
2 *380:Y 0.000189548
3 *52:8 0.000441853
4 *395:B *373:A1 4.77702e-05
5 *395:B *395:A 1.54008e-05
6 *395:B *395:C 4.77425e-05
7 *395:B *396:A 0
8 *395:B *413:A2 0
9 *395:B *164:12 0
10 *395:B *205:54 0
11 *52:8 *162:34 0.00059738
12 *52:8 *166:8 0
13 *52:8 *201:10 0.000280602
*RES
1 *380:Y *52:8 42.8222 
2 *52:8 *395:B 42.4823 
*END

*D_NET *53 0.00558159
*CONN
*I *463:A1 I *D sg13g2_o21ai_1
*I *438:C I *D sg13g2_nor4_1
*I *417:A2 I *D sg13g2_o21ai_1
*I *382:B I *D sg13g2_nor2_1
*I *381:Y O *D sg13g2_nor2_1
*CAP
1 *463:A1 0.000362026
2 *438:C 0.000123904
3 *417:A2 0
4 *382:B 6.14841e-05
5 *381:Y 0.000200082
6 *53:48 0.000715117
7 *53:41 0.00023186
8 *53:22 0.00103594
9 *53:10 0.00117187
10 *382:B *416:A2 0
11 *438:C *438:B 3.16486e-05
12 *438:C *438:D 4.78195e-05
13 *438:C *439:B 0
14 *438:C *195:57 0
15 *438:C *199:85 0.000111687
16 *463:A1 *440:B1 7.91362e-05
17 *463:A1 *110:8 0
18 *463:A1 *195:49 0.000234224
19 *463:A1 *205:76 0
20 *53:10 *383:A1 0
21 *53:10 *205:76 0.00012816
22 *53:10 *207:40 0
23 *53:10 *210:52 0.000122749
24 *53:22 *361:B 0
25 *53:22 *369:B 0
26 *53:22 *433:C 1.54008e-05
27 *53:22 *434:B 0
28 *53:22 *435:B 0
29 *53:22 *442:A1 0
30 *53:22 *130:12 0
31 *53:22 *168:8 0
32 *53:22 *199:45 8.50879e-05
33 *53:22 *201:77 0.0001765
34 *53:22 *206:79 0
35 *53:22 *206:85 0
36 *53:22 *210:33 0
37 *53:41 *414:B1 1.54282e-05
38 *53:41 *417:A1 0.000341119
39 *53:41 *162:19 0
40 *53:41 *201:44 0.000139899
41 *53:48 *106:8 0
42 *53:48 *107:10 0
43 *53:48 *110:8 0
44 *53:48 *199:85 7.51285e-05
45 *53:48 *202:111 0
46 *53:48 *205:76 7.53228e-05
*RES
1 *381:Y *53:10 42.1218 
2 *53:10 *53:22 27.7147 
3 *53:22 *382:B 20.6695 
4 *53:22 *53:41 42.6883 
5 *53:41 *417:A2 20 
6 *53:10 *53:48 2.3278 
7 *53:48 *438:C 41.1845 
8 *53:48 *463:A1 43.5432 
*END

*D_NET *54 0.00124904
*CONN
*I *414:A1 I *D sg13g2_o21ai_1
*I *386:B I *D sg13g2_nor3_1
*I *382:Y O *D sg13g2_nor2_1
*CAP
1 *414:A1 0.000104576
2 *386:B 0.000241932
3 *382:Y 0.000238712
4 *54:12 0.000585219
5 *386:B *416:A2 0
6 *386:B *416:B1 1.54008e-05
7 *386:B *56:10 0
8 *386:B *57:10 1.54008e-05
9 *386:B *199:28 0
10 *54:12 *416:A1 0
11 *54:12 *416:B1 0
12 *54:12 *417:A1 0
13 *54:12 *56:10 4.78028e-05
14 *54:12 *85:8 0
15 *54:12 *204:14 0
16 *54:12 *210:33 0
*RES
1 *382:Y *54:12 42.5956 
2 *54:12 *386:B 42.266 
3 *54:12 *414:A1 40.8446 
*END

*D_NET *55 0.00156954
*CONN
*I *434:A I *D sg13g2_nor2_1
*I *436:C I *D sg13g2_nor3_1
*I *383:Y O *D sg13g2_a21oi_1
*CAP
1 *434:A 0.000267688
2 *436:C 0.00013983
3 *383:Y 0
4 *55:4 0.000407518
5 *434:A *433:C 0
6 *434:A *435:B 0
7 *434:A *201:54 0.000144661
8 *434:A *201:58 0.00014434
9 *434:A *201:77 3.23417e-05
10 *434:A *210:33 1.54008e-05
11 *434:A *210:52 0
12 *436:C *436:B 0.000176817
13 *436:C *201:77 0
14 *436:C *210:52 0.000240948
*RES
1 *383:Y *55:4 20 
2 *55:4 *436:C 21.6171 
3 *55:4 *434:A 22.8325 
*END

*D_NET *56 0.00587875
*CONN
*I *385:B I *D sg13g2_and2_1
*I *403:B I *D sg13g2_nor2_1
*I *404:A2 I *D sg13g2_a21oi_1
*I *397:A2 I *D sg13g2_o21ai_1
*I *415:A2 I *D sg13g2_a21o_1
*I *384:Y O *D sg13g2_xnor2_1
*CAP
1 *385:B 0
2 *403:B 0
3 *404:A2 0.000158837
4 *397:A2 4.96077e-05
5 *415:A2 2.08826e-05
6 *384:Y 0.000466825
7 *56:53 0.000421047
8 *56:36 0.000195087
9 *56:30 0.00133506
10 *56:26 0.00109024
11 *56:10 0.00032484
12 *397:A2 *390:B 0
13 *397:A2 *397:A1 4.78521e-05
14 *397:A2 *413:B1 0
15 *404:A2 *404:A1 1.54008e-05
16 *415:A2 *206:62 0
17 *56:10 *416:A1 0
18 *56:10 *416:A2 8.03692e-05
19 *56:10 *416:B1 0
20 *56:10 *156:8 0
21 *56:10 *210:33 0.000339398
22 *56:26 *385:A 7.98757e-05
23 *56:26 *386:A 0
24 *56:26 *57:10 0
25 *56:26 *204:84 0
26 *56:30 *175:31 0
27 *56:30 *200:57 0
28 *56:30 *200:68 0
29 *56:30 *203:8 0
30 *56:30 *207:62 0.000440843
31 *56:36 *75:16 0
32 *56:53 *389:A1 1.54008e-05
33 *56:53 *389:B1 0
34 *56:53 *404:A1 0
35 *56:53 *75:8 0.000175217
36 *56:53 *203:46 0
37 *386:B *56:10 0
38 *485:D *56:53 0.000144765
39 *515:A *404:A2 0
40 *31:8 *404:A2 0
41 *31:16 *56:36 0.000212288
42 *41:50 *56:30 2.19369e-05
43 *41:50 *56:53 0.000195171
44 *54:12 *56:10 4.78028e-05
*RES
1 *384:Y *56:10 43.3578 
2 *56:10 *415:A2 40.1699 
3 *384:Y *56:26 21.4008 
4 *56:26 *56:30 28.0134 
5 *56:30 *56:36 41.4008 
6 *56:36 *397:A2 40.5356 
7 *56:30 *56:53 22.9664 
8 *56:53 *404:A2 22.163 
9 *56:53 *403:B 20 
10 *56:26 *385:B 20 
*END

*D_NET *57 0.00211512
*CONN
*I *386:C I *D sg13g2_nor3_1
*I *422:A1 I *D sg13g2_o21ai_1
*I *414:A2 I *D sg13g2_o21ai_1
*I *385:X O *D sg13g2_and2_1
*CAP
1 *386:C 0
2 *422:A1 7.51448e-05
3 *414:A2 0.000233113
4 *385:X 0.000329985
5 *57:14 0.000367313
6 *57:10 0.000389041
7 *414:A2 *414:B1 0
8 *414:A2 *92:22 0
9 *414:A2 *199:28 0.000241792
10 *422:A1 *207:16 0.000234399
11 *422:A1 *211:36 0
12 *57:10 *333:B 0
13 *57:10 *385:A 0
14 *57:10 *386:A 0
15 *57:10 *479:A 4.77395e-05
16 *57:10 *199:28 0
17 *57:10 *206:16 0
18 *57:14 *207:16 0.000181192
19 *386:B *57:10 1.54008e-05
20 *56:26 *57:10 0
*RES
1 *385:X *57:10 23.2136 
2 *57:10 *57:14 20.8446 
3 *57:14 *414:A2 42.266 
4 *57:14 *422:A1 41.0918 
5 *57:10 *386:C 20 
*END

*D_NET *58 0.00268778
*CONN
*I *390:A_N I *D sg13g2_nand2b_1
*I *386:Y O *D sg13g2_nor3_1
*CAP
1 *390:A_N 5.10268e-05
2 *386:Y 0.000351552
3 *58:8 0.000402578
4 *390:A_N *390:B 8.00842e-05
5 *58:8 *91:10 0.000652674
6 *58:8 *204:14 0
7 *58:8 *207:14 0.000336535
8 *58:8 *207:16 0.000813331
*RES
1 *386:Y *58:8 45.2942 
2 *58:8 *390:A_N 40.5356 
*END

*D_NET *59 0.00018196
*CONN
*I *391:B I *D sg13g2_nand2b_1
*I *387:Y O *D sg13g2_o21ai_1
*CAP
1 *391:B 9.09802e-05
2 *387:Y 9.09802e-05
*RES
1 *387:Y *391:B 41.0918 
*END

*D_NET *60 0.000595778
*CONN
*I *405:A2 I *D sg13g2_o21ai_1
*I *389:A2 I *D sg13g2_a21oi_1
*I *388:Y O *D sg13g2_xnor2_1
*CAP
1 *405:A2 4.31749e-05
2 *389:A2 0.000116555
3 *388:Y 8.28206e-05
4 *60:6 0.00024255
5 *389:A2 *389:A1 7.98757e-05
6 *389:A2 *404:A1 0
7 *389:A2 *413:B1 0
8 *405:A2 *405:B1 1.54008e-05
9 *405:A2 *405:A1 1.54008e-05
10 *60:6 *404:A1 0
11 *60:6 *405:B1 0
12 *60:6 *413:A2 0
13 *515:A *60:6 0
*RES
1 *388:Y *60:6 21.0918 
2 *60:6 *389:A2 21.3802 
3 *60:6 *405:A2 20.5356 
*END

*D_NET *61 0.00103575
*CONN
*I *390:B I *D sg13g2_nand2b_1
*I *389:Y O *D sg13g2_a21oi_1
*CAP
1 *390:B 0.00039184
2 *389:Y 0.00039184
3 *390:B *389:A1 1.54008e-05
4 *390:B *389:B1 0
5 *390:B *397:A1 4.78521e-05
6 *390:B *420:A2 1.54008e-05
7 *390:B *62:10 7.82314e-05
8 *390:B *74:12 1.51e-05
9 *390:B *208:10 0
10 *390:A_N *390:B 8.00842e-05
11 *397:A2 *390:B 0
12 *515:A *390:B 0
*RES
1 *389:Y *390:B 44.1612 
*END

*D_NET *62 0.000918155
*CONN
*I *413:A1 I *D sg13g2_a22oi_1
*I *390:Y O *D sg13g2_nand2b_1
*CAP
1 *413:A1 0
2 *390:Y 0.00022714
3 *62:10 0.00022714
4 *62:10 *389:B1 0
5 *62:10 *200:92 0
6 *62:10 *207:14 0.000385644
7 *390:B *62:10 7.82314e-05
*RES
1 *390:Y *62:10 42.369 
2 *62:10 *413:A1 40 
*END

*D_NET *63 0.00160081
*CONN
*I *424:C I *D sg13g2_nand3_1
*I *392:B2 I *D sg13g2_a221oi_1
*I *391:Y O *D sg13g2_nand2b_1
*CAP
1 *424:C 0.000141883
2 *392:B2 0.000106081
3 *391:Y 0.000152329
4 *63:12 0.000247964
5 *63:10 0.000152329
6 *392:B2 *377:A2 0
7 *392:B2 *387:B1 8.0216e-05
8 *424:C *387:B1 0
9 *424:C *207:142 4.78192e-05
10 *63:10 *152:55 0.000336465
11 *63:10 *195:49 0.000335719
*RES
1 *391:Y *63:10 42.1218 
2 *63:10 *63:12 20 
3 *63:12 *392:B2 20.9682 
4 *63:12 *424:C 21.4368 
*END

*D_NET *64 0.00124143
*CONN
*I *395:C I *D sg13g2_nor4_1
*I *392:Y O *D sg13g2_a221oi_1
*CAP
1 *395:C 0.000388589
2 *392:Y 0.000388589
3 *395:C *377:B1 0
4 *395:C *387:B1 0.000401109
5 *395:C *395:A 0
6 *395:C *395:D 1.54008e-05
7 *395:C *428:A1 0
8 *395:C *194:31 0
9 *395:B *395:C 4.77425e-05
*RES
1 *392:Y *395:C 43.5638 
*END

*D_NET *65 0.00447496
*CONN
*I *428:A1 I *D sg13g2_o21ai_1
*I *394:B1 I *D sg13g2_a21oi_1
*I *396:A I *D sg13g2_nor2b_1
*I *421:A_N I *D sg13g2_nand2b_1
*I *393:Y O *D sg13g2_nand2b_1
*CAP
1 *428:A1 0.000268634
2 *394:B1 3.06093e-05
3 *396:A 0.000208783
4 *421:A_N 4.96192e-05
5 *393:Y 0.000220305
6 *65:36 0.000571298
7 *65:21 0.000718763
8 *65:10 0.000507849
9 *394:B1 *395:D 0
10 *394:B1 *413:A2 0
11 *396:A *201:10 0
12 *421:A_N *421:B 1.54008e-05
13 *421:A_N *158:22 8.00842e-05
14 *428:A1 *394:A2 0
15 *428:A1 *428:A2 0
16 *428:A1 *157:26 8.01776e-05
17 *428:A1 *202:14 0.000112422
18 *428:A1 *202:25 0
19 *428:A1 *207:134 0
20 *65:10 *418:A2 0
21 *65:10 *112:10 0.000112426
22 *65:10 *112:18 0.000284374
23 *65:21 *112:18 0.000653797
24 *65:21 *166:8 0
25 *65:36 *112:18 0.000545019
26 *65:36 *157:26 1.54008e-05
27 *65:36 *164:12 0
28 *65:36 *166:8 0
29 *395:B *396:A 0
30 *395:C *428:A1 0
*RES
1 *393:Y *65:10 42.3072 
2 *65:10 *421:A_N 40.5356 
3 *65:10 *65:21 3.0694 
4 *65:21 *396:A 41.8334 
5 *65:21 *65:36 23.1106 
6 *65:36 *394:B1 20.3502 
7 *65:36 *428:A1 22.678 
*END

*D_NET *66 0.000319431
*CONN
*I *395:D I *D sg13g2_nor4_1
*I *394:Y O *D sg13g2_a21oi_1
*CAP
1 *395:D 0.000141291
2 *394:Y 0.000141291
3 *395:D *413:A2 2.14475e-05
4 *394:B1 *395:D 0
5 *395:C *395:D 1.54008e-05
*RES
1 *394:Y *395:D 41.5862 
*END

*D_NET *67 0.00172508
*CONN
*I *413:A2 I *D sg13g2_a22oi_1
*I *395:Y O *D sg13g2_nor4_1
*CAP
1 *413:A2 0.000714624
2 *395:Y 0.000714624
3 *413:A2 *397:B1 0
4 *413:A2 *148:50 0.000274387
5 *413:A2 *205:54 0
6 *413:A2 *207:115 0
7 *413:A2 *210:106 0
8 *394:B1 *413:A2 0
9 *395:B *413:A2 0
10 *395:D *413:A2 2.14475e-05
11 *31:33 *413:A2 0
12 *60:6 *413:A2 0
*RES
1 *395:Y *413:A2 46.9113 
*END

*D_NET *68 0.0012283
*CONN
*I *397:B1 I *D sg13g2_o21ai_1
*I *396:Y O *D sg13g2_nor2b_1
*CAP
1 *397:B1 0.000494054
2 *396:Y 0.000494054
3 *397:B1 *91:10 0.000240196
4 *397:B1 *158:22 0
5 *397:B1 *205:54 0
6 *413:A2 *397:B1 0
*RES
1 *396:Y *397:B1 44.909 
*END

*D_NET *69 0.000398716
*CONN
*I *413:B1 I *D sg13g2_a22oi_1
*I *397:Y O *D sg13g2_o21ai_1
*CAP
1 *413:B1 0.000143033
2 *397:Y 0.000143033
3 *413:B1 *208:10 0.000112651
4 *389:A2 *413:B1 0
5 *397:A2 *413:B1 0
*RES
1 *397:Y *413:B1 41.5965 
*END

*D_NET *70 0.00802635
*CONN
*I *460:A2 I *D sg13g2_a21oi_1
*I *455:C I *D sg13g2_nor3_1
*I *401:A1 I *D sg13g2_a21oi_1
*I *398:Y O *D sg13g2_nor2b_1
*CAP
1 *460:A2 0.000187547
2 *455:C 0
3 *401:A1 0.000253981
4 *398:Y 0.000340955
5 *70:46 0.00107891
6 *70:37 0.000181068
7 *70:29 0.00160144
8 *70:10 0.00112395
9 *401:A1 *410:D 0
10 *401:A1 *430:A2 0
11 *401:A1 *72:10 0.000149624
12 *401:A1 *101:14 0
13 *460:A2 *460:A1 0.000290094
14 *460:A2 *460:B1 0
15 *460:A2 *124:10 0
16 *70:10 *398:A 0
17 *70:10 *72:10 0
18 *70:10 *159:16 0
19 *70:10 *176:14 0.000337213
20 *70:10 *209:45 8.00521e-05
21 *70:29 *129:8 0.000653264
22 *70:29 *178:8 2.14736e-05
23 *70:29 *192:8 0
24 *70:29 *192:42 0.00096759
25 *70:29 *192:57 0.000284575
26 *70:29 *217:8 0
27 *70:37 *191:8 0
28 *70:46 *151:25 0.00047461
29 *70:46 *180:10 0
30 *70:46 *189:80 0
31 *506:A *70:29 0
32 *42:8 *401:A1 0
33 *42:8 *70:29 0
*RES
1 *398:Y *70:10 43.4505 
2 *70:10 *401:A1 42.5132 
3 *70:10 *70:29 27.0246 
4 *70:29 *70:37 41.751 
5 *70:37 *455:C 20 
6 *70:29 *70:46 30.918 
7 *70:46 *460:A2 41.8334 
*END

*D_NET *71 0.00233948
*CONN
*I *463:A2 I *D sg13g2_o21ai_1
*I *438:D I *D sg13g2_nor4_1
*I *437:A2 I *D sg13g2_o21ai_1
*I *399:Y O *D sg13g2_o21ai_1
*CAP
1 *463:A2 0.000234552
2 *438:D 4.81299e-05
3 *437:A2 0
4 *399:Y 6.41532e-05
5 *71:17 0.000388216
6 *71:8 0.000169687
7 *438:D *438:B 0
8 *438:D *439:A_N 7.90009e-05
9 *463:A2 *155:28 0
10 *463:A2 *205:76 0.000529934
11 *71:8 *199:100 7.51285e-05
12 *71:8 *205:76 0.00018261
13 *71:8 *206:116 2.21839e-05
14 *71:17 *155:28 0
15 *71:17 *199:100 0.000181192
16 *71:17 *205:76 0.000316869
17 *438:C *438:D 4.78195e-05
*RES
1 *399:Y *71:8 41.0918 
2 *71:8 *437:A2 40 
3 *71:8 *71:17 1.5862 
4 *71:17 *438:D 40.5356 
5 *71:17 *463:A2 42.575 
*END

*D_NET *72 0.00879249
*CONN
*I *426:B I *D sg13g2_nand2_1
*I *452:B I *D sg13g2_nand2_1
*I *451:B I *D sg13g2_nand2_1
*I *445:A_N I *D sg13g2_nand3b_1
*I *401:A2 I *D sg13g2_a21oi_1
*I *400:Y O *D sg13g2_o21ai_1
*CAP
1 *426:B 0
2 *452:B 0.000230688
3 *451:B 6.16081e-05
4 *445:A_N 0.000557083
5 *401:A2 0
6 *400:Y 0.000452364
7 *72:35 0.00114998
8 *72:29 0.000870824
9 *72:25 0.000560209
10 *72:10 0.000903722
11 *445:A_N *406:B1 0.000434528
12 *445:A_N *445:C 1.54008e-05
13 *445:A_N *448:A2 0
14 *445:A_N *112:18 0
15 *445:A_N *149:46 0
16 *445:A_N *157:45 0
17 *445:A_N *171:12 0
18 *445:A_N *197:10 0.000335496
19 *445:A_N *203:83 0.000284521
20 *451:B *448:B1 0.00011229
21 *451:B *473:B 0.00011229
22 *452:B *470:B 0.000272747
23 *452:B *113:16 0.000305088
24 *452:B *153:6 1.54008e-05
25 *72:10 *410:D 0
26 *72:10 *516:A 0.000112426
27 *72:10 *101:14 0
28 *72:10 *209:12 0
29 *72:10 *209:45 8.00842e-05
30 *72:25 *406:A1 0
31 *72:25 *73:6 0
32 *72:25 *97:14 8.00842e-05
33 *72:25 *102:12 0.000393037
34 *72:25 *209:45 0.000112426
35 *72:35 *97:20 0
36 *72:35 *114:14 0
37 *72:35 *189:63 0
38 *72:35 *189:80 0
39 *401:A1 *72:10 0.000149624
40 *473:A_N *72:25 0
41 *501:A *452:B 0.000180645
42 *501:A *72:25 0
43 *501:A *72:29 0.000437644
44 *506:A *452:B 0.000159113
45 *506:A *72:29 2.18755e-05
46 *42:8 *72:29 0.000391297
47 *43:14 *72:35 0
48 *70:10 *72:10 0
*RES
1 *400:Y *72:10 24.1453 
2 *72:10 *401:A2 20 
3 *72:10 *72:25 44.326 
4 *72:25 *72:29 22.0806 
5 *72:29 *72:35 45.0779 
6 *72:35 *445:A_N 45.7371 
7 *72:35 *451:B 40.7519 
8 *72:29 *452:B 43.1106 
9 *72:25 *426:B 20 
*END

*D_NET *73 0.00268496
*CONN
*I *430:A2 I *D sg13g2_a221oi_1
*I *412:A1 I *D sg13g2_a21oi_1
*I *401:Y O *D sg13g2_a21oi_1
*CAP
1 *430:A2 0.000110957
2 *412:A1 0
3 *401:Y 5.67747e-05
4 *73:18 0.000605729
5 *73:6 0.000773461
6 *430:A2 *410:D 1.54285e-05
7 *430:A2 *162:34 6.43973e-05
8 *73:6 *162:34 7.97045e-05
9 *73:6 *209:45 0
10 *73:18 *412:A2 8.00842e-05
11 *73:18 *423:A2 0
12 *73:18 *84:10 4.77425e-05
13 *73:18 *94:10 0.000177891
14 *73:18 *102:12 0
15 *73:18 *148:42 0
16 *73:18 *207:115 0
17 *73:18 *207:134 6.99672e-05
18 *73:18 *209:47 0.000602822
19 *401:A1 *430:A2 0
20 *72:25 *73:6 0
*RES
1 *401:Y *73:6 20.5356 
2 *73:6 *73:18 46.4066 
3 *73:18 *412:A1 20 
4 *73:6 *430:A2 21.1665 
*END

*D_NET *74 0.00344631
*CONN
*I *412:A2 I *D sg13g2_a21oi_1
*I *420:A2 I *D sg13g2_o21ai_1
*I *402:Y O *D sg13g2_nand2b_1
*CAP
1 *412:A2 0.00031919
2 *420:A2 0.000203692
3 *402:Y 0.000150515
4 *74:20 0.000692654
5 *74:12 0.000320288
6 *412:A2 *431:A 0.000181279
7 *412:A2 *84:10 0.000393736
8 *412:A2 *91:10 0.000126461
9 *412:A2 *207:14 0.000365896
10 *412:A2 *207:115 1.54008e-05
11 *420:A2 *420:A1 0.000208145
12 *420:A2 *91:10 0
13 *74:12 *389:B1 0
14 *74:12 *200:68 0
15 *74:20 *91:10 7.30101e-05
16 *74:20 *207:14 7.31655e-05
17 *390:B *420:A2 1.54008e-05
18 *390:B *74:12 1.51e-05
19 *31:16 *74:20 0.000212289
20 *73:18 *412:A2 8.00842e-05
*RES
1 *402:Y *74:12 41.236 
2 *74:12 *74:20 41.751 
3 *74:20 *420:A2 41.8334 
4 *74:20 *412:A2 44.3466 
*END

*D_NET *75 0.00162978
*CONN
*I *420:B1 I *D sg13g2_o21ai_1
*I *403:Y O *D sg13g2_nor2_1
*CAP
1 *420:B1 0
2 *403:Y 0.000123203
3 *75:16 0.000541058
4 *75:8 0.00066426
5 *75:8 *203:46 0
6 *75:16 *102:12 0
7 *75:16 *203:52 0
8 *31:16 *75:16 0.000126047
9 *56:36 *75:16 0
10 *56:53 *75:8 0.000175217
*RES
1 *403:Y *75:8 41.1845 
2 *75:8 *75:16 45.0264 
3 *75:16 *420:B1 40 
*END

*D_NET *76 0.000555651
*CONN
*I *405:B1 I *D sg13g2_o21ai_1
*I *404:Y O *D sg13g2_a21oi_1
*CAP
1 *405:B1 0.000259037
2 *404:Y 0.000259037
3 *405:B1 *404:A1 2.21754e-05
4 *405:B1 *405:A1 0
5 *405:B1 *203:46 0
6 *405:A2 *405:B1 1.54008e-05
7 *515:A *405:B1 0
8 *60:6 *405:B1 0
*RES
1 *404:Y *405:B1 42.3175 
*END

*D_NET *77 0.00115154
*CONN
*I *411:B I *D sg13g2_nand3_1
*I *405:Y O *D sg13g2_o21ai_1
*CAP
1 *411:B 0
2 *405:Y 0.000290948
3 *77:8 0.000290948
4 *77:8 *388:B 0.000282518
5 *77:8 *200:92 0
6 *41:50 *77:8 0.000287127
*RES
1 *405:Y *77:8 43.0694 
2 *77:8 *411:B 40 
*END

*D_NET *78 0.0015768
*CONN
*I *444:A1 I *D sg13g2_a21oi_1
*I *410:C I *D sg13g2_nand4_1
*I *406:Y O *D sg13g2_o21ai_1
*CAP
1 *444:A1 0.000160112
2 *410:C 0.000118433
3 *406:Y 0
4 *78:6 0.000278545
5 *410:C *211:131 0
6 *444:A1 *97:14 0.00023464
7 *444:A1 *198:27 0
8 *473:A_N *410:C 7.52158e-05
9 *473:A_N *444:A1 0.000422514
10 *31:37 *410:C 0.000287342
*RES
1 *406:Y *78:6 40 
2 *78:6 *410:C 41.5862 
3 *78:6 *444:A1 42.3278 
*END

*D_NET *79 0.00451877
*CONN
*I *408:A I *D sg13g2_inv_1
*I *446:A2 I *D sg13g2_o21ai_1
*I *465:A2 I *D sg13g2_a21oi_1
*I *409:B1 I *D sg13g2_o21ai_1
*I *407:Y O *D sg13g2_nor2_1
*CAP
1 *408:A 0
2 *446:A2 3.03368e-05
3 *465:A2 5.67202e-05
4 *409:B1 0.000458388
5 *407:Y 0
6 *79:49 0.000173169
7 *79:34 0.000673308
8 *79:10 0.000787554
9 *79:6 0.000742249
10 *409:B1 *357:A 4.77425e-05
11 *409:B1 *364:A 0
12 *409:B1 *409:A1 0
13 *409:B1 *152:8 7.98582e-05
14 *409:B1 *158:8 0
15 *409:B1 *196:107 0
16 *446:A2 *446:B1 4.77425e-05
17 *446:A2 *446:A1 1.54008e-05
18 *446:A2 *469:B 0
19 *465:A2 *364:A 0
20 *79:10 *365:B 0.000159839
21 *79:10 *158:63 0.00018211
22 *79:10 *193:50 0
23 *79:10 *195:34 0
24 *79:10 *195:95 0
25 *79:34 *446:B1 0.000111476
26 *79:34 *469:B 0
27 *79:34 *193:50 0
28 *79:34 *195:95 0
29 *79:49 *458:A 0
30 *79:49 *115:10 0.000287256
31 *79:49 *189:80 0.000444961
32 *79:49 *193:35 0.000125175
33 *41:73 *409:B1 1.54008e-05
34 *41:88 *409:B1 8.00842e-05
*RES
1 *407:Y *79:6 40 
2 *79:6 *79:10 22.575 
3 *79:10 *409:B1 24.017 
4 *79:10 *465:A2 20.5356 
5 *79:6 *79:34 23.7595 
6 *79:34 *446:A2 20.3193 
7 *79:34 *79:49 42.6471 
8 *79:49 *408:A 20 
*END

*D_NET *80 0.000685023
*CONN
*I *459:A2 I *D sg13g2_a21oi_1
*I *408:Y O *D sg13g2_inv_1
*CAP
1 *459:A2 5.08661e-05
2 *408:Y 0.000243763
3 *80:8 0.00029463
4 *459:A2 *459:A1 1.54556e-05
5 *459:A2 *538:A 0
6 *459:A2 *198:74 8.03089e-05
7 *80:8 *458:A 0
8 *80:8 *459:A1 0
9 *80:8 *468:B1 0
10 *80:8 *124:10 0
11 *80:8 *196:130 0
12 *80:8 *198:70 0
*RES
1 *408:Y *80:8 41.8334 
2 *80:8 *459:A2 40.5356 
*END

*D_NET *81 0.000995875
*CONN
*I *410:D I *D sg13g2_nand4_1
*I *429:B I *D sg13g2_nor2_1
*I *409:Y O *D sg13g2_o21ai_1
*CAP
1 *410:D 0.000309777
2 *429:B 2.81507e-05
3 *409:Y 0.000152296
4 *81:6 0.000490223
5 *410:D *410:B 0
6 *410:D *211:131 0
7 *429:B *211:131 0
8 *81:6 *158:8 0
9 *81:6 *196:107 0
10 *401:A1 *410:D 0
11 *430:A2 *410:D 1.54285e-05
12 *41:73 *81:6 0
13 *72:10 *410:D 0
*RES
1 *409:Y *81:6 21.4008 
2 *81:6 *429:B 20.3502 
3 *81:6 *410:D 23.2136 
*END

*D_NET *82 0.00302562
*CONN
*I *411:C I *D sg13g2_nand3_1
*I *410:Y O *D sg13g2_nand4_1
*CAP
1 *411:C 0.000432434
2 *410:Y 0.000414281
3 *82:12 0.000846715
4 *411:C *354:A 0
5 *411:C *423:B1 0
6 *411:C *101:14 0
7 *411:C *148:38 0
8 *411:C *148:42 0
9 *411:C *189:8 0.000111
10 *411:C *196:35 4.7534e-05
11 *411:C *211:74 0.000209033
12 *411:C *211:112 0.000129421
13 *82:12 *102:12 0
14 *82:12 *159:16 0.000177071
15 *82:12 *198:8 0.000144729
16 *82:12 *198:27 1.54008e-05
17 *82:12 *211:62 0
18 *42:8 *82:12 0.000497996
*RES
1 *410:Y *82:12 44.326 
2 *82:12 *411:C 44.3466 
*END

*D_NET *83 0.000684677
*CONN
*I *412:B1 I *D sg13g2_a21oi_1
*I *411:Y O *D sg13g2_nand3_1
*CAP
1 *412:B1 0.000155847
2 *411:Y 0.000155847
3 *412:B1 *411:A 0.000143341
4 *412:B1 *84:10 0
5 *412:B1 *148:38 0.000208195
6 *412:B1 *148:42 2.14475e-05
7 *515:A *412:B1 0
*RES
1 *411:Y *412:B1 41.751 
*END

*D_NET *84 0.00114139
*CONN
*I *413:B2 I *D sg13g2_a22oi_1
*I *412:Y O *D sg13g2_a21oi_1
*CAP
1 *413:B2 0
2 *412:Y 0.00020612
3 *84:10 0.00020612
4 *84:10 *431:A 0
5 *84:10 *207:14 0.000287672
6 *84:10 *207:91 0
7 *412:A2 *84:10 0.000393736
8 *412:B1 *84:10 0
9 *515:A *84:10 0
10 *41:63 *84:10 0
11 *73:18 *84:10 4.77425e-05
*RES
1 *412:Y *84:10 42.8634 
2 *84:10 *413:B2 40 
*END

*D_NET *85 0.000503521
*CONN
*I *416:A1 I *D sg13g2_a21oi_1
*I *414:Y O *D sg13g2_o21ai_1
*CAP
1 *416:A1 4.62324e-05
2 *414:Y 0.000205528
3 *85:8 0.000251761
4 *85:8 *87:8 0
5 *85:8 *162:19 0
6 *54:12 *416:A1 0
7 *54:12 *85:8 0
8 *56:10 *416:A1 0
*RES
1 *414:Y *85:8 41.8334 
2 *85:8 *416:A1 40.4274 
*END

*D_NET *86 0.000277793
*CONN
*I *416:A2 I *D sg13g2_a21oi_1
*I *415:X O *D sg13g2_a21o_1
*CAP
1 *416:A2 9.87121e-05
2 *415:X 9.87121e-05
3 *382:B *416:A2 0
4 *386:B *416:A2 0
5 *56:10 *416:A2 8.03692e-05
*RES
1 *415:X *416:A2 41.133 
*END

*D_NET *87 0.00102289
*CONN
*I *431:B I *D sg13g2_or4_1
*I *416:Y O *D sg13g2_a21oi_1
*CAP
1 *431:B 5.12147e-05
2 *416:Y 0.000366838
3 *87:8 0.000418053
4 *431:B *431:A 8.00842e-05
5 *431:B *431:C 3.15716e-05
6 *87:8 *89:10 0
7 *87:8 *90:8 7.51285e-05
8 *87:8 *162:19 0
9 *87:8 *204:14 0
10 *85:8 *87:8 0
*RES
1 *416:Y *87:8 43.3166 
2 *87:8 *431:B 40.5356 
*END

*D_NET *88 0.000149076
*CONN
*I *418:B1 I *D sg13g2_o21ai_1
*I *417:Y O *D sg13g2_o21ai_1
*CAP
1 *418:B1 7.45379e-05
2 *417:Y 7.45379e-05
3 *418:B1 *414:B1 0
4 *418:B1 *199:54 0
*RES
1 *417:Y *418:B1 40.8446 
*END

*D_NET *89 0.00124045
*CONN
*I *419:B I *D sg13g2_nor2_1
*I *418:Y O *D sg13g2_o21ai_1
*CAP
1 *419:B 0
2 *418:Y 0.000409963
3 *89:10 0.000409963
4 *89:10 *414:B1 0
5 *89:10 *90:8 0.000341485
6 *89:10 *92:22 7.90437e-05
7 *89:10 *102:12 0
8 *89:10 *162:19 0
9 *87:8 *89:10 0
*RES
1 *418:Y *89:10 43.9758 
2 *89:10 *419:B 40 
*END

*D_NET *90 0.000796762
*CONN
*I *431:C I *D sg13g2_or4_1
*I *419:Y O *D sg13g2_nor2_1
*CAP
1 *431:C 1.72309e-05
2 *419:Y 0.000141272
3 *90:8 0.000158503
4 *431:C *431:D 3.15716e-05
5 *90:8 *512:A 0
6 *90:8 *204:14 0
7 *431:B *431:C 3.15716e-05
8 *87:8 *90:8 7.51285e-05
9 *89:10 *90:8 0.000341485
*RES
1 *419:Y *90:8 41.8334 
2 *90:8 *431:C 40.2112 
*END

*D_NET *91 0.00322405
*CONN
*I *422:B1 I *D sg13g2_o21ai_1
*I *420:Y O *D sg13g2_o21ai_1
*CAP
1 *422:B1 7.87561e-05
2 *420:Y 0.000498571
3 *91:10 0.000577327
4 *422:B1 *92:22 0.000112426
5 *91:10 *420:A1 0.000316067
6 *91:10 *431:A 0
7 *91:10 *204:14 0.000548557
8 *397:B1 *91:10 0.000240196
9 *412:A2 *91:10 0.000126461
10 *420:A2 *91:10 0
11 *58:8 *91:10 0.000652674
12 *74:20 *91:10 7.30101e-05
*RES
1 *420:Y *91:10 46.4169 
2 *91:10 *422:B1 40.7519 
*END

*D_NET *92 0.00222466
*CONN
*I *422:A2 I *D sg13g2_o21ai_1
*I *421:Y O *D sg13g2_nand2b_1
*CAP
1 *422:A2 0
2 *421:Y 0.000944982
3 *92:22 0.000944982
4 *92:22 *374:A_N 8.00842e-05
5 *92:22 *414:B1 0
6 *92:22 *418:A2 1.54008e-05
7 *92:22 *431:D 0
8 *92:22 *158:22 0
9 *92:22 *195:57 4.77425e-05
10 *92:22 *199:37 0
11 *92:22 *201:44 0
12 *414:A2 *92:22 0
13 *422:B1 *92:22 0.000112426
14 *89:10 *92:22 7.90437e-05
*RES
1 *421:Y *92:22 29.9504 
2 *92:22 *422:A2 20 
*END

*D_NET *93 0.000662693
*CONN
*I *431:D I *D sg13g2_or4_1
*I *422:Y O *D sg13g2_o21ai_1
*CAP
1 *431:D 0.000315561
2 *422:Y 0.000315561
3 *431:D *431:A 0
4 *431:D *211:62 0
5 *431:C *431:D 3.15716e-05
6 *511:A *431:D 0
7 *92:22 *431:D 0
*RES
1 *422:Y *431:D 42.9664 
*END

*D_NET *94 0.00105951
*CONN
*I *430:B1 I *D sg13g2_a221oi_1
*I *423:Y O *D sg13g2_o21ai_1
*CAP
1 *430:B1 0.000106066
2 *423:Y 7.79768e-05
3 *94:10 0.000184043
4 *430:B1 *101:14 0.000111551
5 *430:B1 *211:131 0.000176235
6 *94:10 *423:B1 4.78524e-05
7 *94:10 *102:12 0.000177891
8 *73:18 *94:10 0.000177891
*RES
1 *423:Y *94:10 41.1639 
2 *94:10 *430:B1 41.1845 
*END

*D_NET *95 0.002026
*CONN
*I *425:B I *D sg13g2_nand2b_1
*I *424:Y O *D sg13g2_nand3_1
*CAP
1 *425:B 0.000159996
2 *424:Y 0.00016063
3 *95:8 0.000320627
4 *425:B *428:B1 8.01773e-05
5 *425:B *189:86 8.00842e-05
6 *95:8 *195:49 0.000654838
7 *95:8 *205:76 0.000181608
8 *95:8 *207:142 0.000388042
*RES
1 *424:Y *95:8 43.0694 
2 *95:8 *425:B 41.4008 
*END

*D_NET *96 0.000775685
*CONN
*I *428:B1 I *D sg13g2_o21ai_1
*I *425:Y O *D sg13g2_nand2b_1
*CAP
1 *428:B1 0.000340053
2 *425:Y 0.000340053
3 *428:B1 *392:A2 0
4 *428:B1 *428:A2 1.54008e-05
5 *428:B1 *202:14 0
6 *428:B1 *207:134 0
7 *425:B *428:B1 8.01773e-05
*RES
1 *425:Y *428:B1 43.0488 
*END

*D_NET *97 0.00752218
*CONN
*I *444:A2 I *D sg13g2_a21oi_1
*I *427:B I *D sg13g2_xnor2_1
*I *440:A2 I *D sg13g2_a21oi_1
*I *426:Y O *D sg13g2_nand2_1
*CAP
1 *444:A2 3.08396e-05
2 *427:B 2.55161e-05
3 *440:A2 0.000541188
4 *426:Y 0.000310716
5 *97:22 0.00112881
6 *97:20 0.000944376
7 *97:14 0.000723826
8 *427:B *387:B1 4.78028e-05
9 *427:B *170:14 4.78028e-05
10 *440:A2 *377:B1 0
11 *440:A2 *130:30 0
12 *440:A2 *152:55 1.49483e-05
13 *440:A2 *194:31 0
14 *440:A2 *194:46 0
15 *440:A2 *202:14 0
16 *440:A2 *202:111 0.000237608
17 *97:14 *406:A1 6.31433e-05
18 *97:14 *149:16 0
19 *97:14 *149:33 0
20 *97:14 *159:16 0
21 *97:14 *186:31 0.0001083
22 *97:14 *198:27 0
23 *97:20 *149:27 0
24 *97:20 *149:46 0
25 *97:22 *467:A 0.000179386
26 *97:22 *170:18 0.00182445
27 *97:22 *194:31 0
28 *444:A1 *97:14 0.00023464
29 *473:A_N *97:14 0
30 *41:88 *97:22 0.000978747
31 *43:14 *97:20 0
32 *72:25 *97:14 8.00842e-05
33 *72:35 *97:20 0
*RES
1 *426:Y *97:14 43.3784 
2 *97:14 *97:20 43.9964 
3 *97:20 *97:22 9.4966 
4 *97:22 *440:A2 45.1191 
5 *97:22 *427:B 40.3193 
6 *97:14 *444:A2 40.3193 
*END

*D_NET *98 0.0003906
*CONN
*I *428:A2 I *D sg13g2_o21ai_1
*I *427:Y O *D sg13g2_xnor2_1
*CAP
1 *428:A2 0.000123724
2 *427:Y 0.000123724
3 *428:A2 *394:A2 0.000127752
4 *428:A2 *207:134 0
5 *428:B1 *428:A2 1.54008e-05
6 *428:A1 *428:A2 0
*RES
1 *427:Y *428:A2 41.3802 
*END

*D_NET *99 0.00148416
*CONN
*I *430:B2 I *D sg13g2_a221oi_1
*I *428:Y O *D sg13g2_o21ai_1
*CAP
1 *430:B2 2.59558e-05
2 *428:Y 0.000252586
3 *99:14 0.000318382
4 *99:8 0.000545012
5 *430:B2 *430:C1 4.77537e-05
6 *430:B2 *211:131 4.77537e-05
7 *99:8 *170:18 0
8 *99:8 *203:83 0
9 *99:14 *196:96 0.000246718
10 *41:69 *99:14 0
*RES
1 *428:Y *99:8 41.8334 
2 *99:8 *99:14 43.3475 
3 *99:14 *430:B2 40.3193 
*END

*D_NET *100 0.000843506
*CONN
*I *430:C1 I *D sg13g2_a221oi_1
*I *429:Y O *D sg13g2_nor2_1
*CAP
1 *430:C1 0.000269093
2 *429:Y 0.000269093
3 *430:C1 *423:B1 0.000242154
4 *430:C1 *211:131 1.54118e-05
5 *430:B2 *430:C1 4.77537e-05
*RES
1 *429:Y *430:C1 42.9973 
*END

*D_NET *101 0.00354492
*CONN
*I *432:A2 I *D sg13g2_o21ai_1
*I *430:Y O *D sg13g2_a221oi_1
*CAP
1 *432:A2 0.00027594
2 *430:Y 0.000990914
3 *101:14 0.00126685
4 *432:A2 *496:A 0
5 *432:A2 *172:44 0
6 *432:A2 *191:37 0
7 *101:14 *398:A 0.000284339
8 *101:14 *516:A 0
9 *101:14 *159:22 7.30101e-05
10 *101:14 *161:8 0
11 *101:14 *162:34 0.000208785
12 *101:14 *189:8 0.000111
13 *101:14 *196:35 7.96847e-05
14 *101:14 *200:92 0
15 *101:14 *207:106 3.04166e-05
16 *101:14 *209:12 0
17 *101:14 *209:24 0
18 *101:14 *211:74 0.000112426
19 *101:14 *211:112 0
20 *401:A1 *101:14 0
21 *411:C *101:14 0
22 *430:B1 *101:14 0.000111551
23 *72:10 *101:14 0
*RES
1 *430:Y *101:14 49.0331 
2 *101:14 *432:A2 42.5029 
*END

*D_NET *102 0.00468199
*CONN
*I *432:B1 I *D sg13g2_o21ai_1
*I *431:X O *D sg13g2_or4_1
*CAP
1 *432:B1 0
2 *431:X 0
3 *102:16 0
4 *102:12 0.00205553
5 *102:6 0.00205553
6 *102:12 *512:A 0
7 *102:12 *148:50 0
8 *102:12 *149:27 0
9 *102:12 *162:19 0
10 *102:12 *162:34 0
11 *102:12 *186:25 0
12 *102:12 *208:14 0
13 *102:12 *209:49 0
14 *102:12 *209:59 0
15 *102:12 *211:62 0
16 *31:16 *102:12 0
17 *31:33 *102:12 0
18 *42:8 *102:12 0
19 *72:25 *102:12 0.000393037
20 *73:18 *102:12 0
21 *75:16 *102:12 0
22 *82:12 *102:12 0
23 *89:10 *102:12 0
24 *94:10 *102:12 0.000177891
*RES
1 *431:X *102:6 40 
2 *102:6 *102:12 38.3134 
3 *102:12 *102:16 40 
4 *102:16 *432:B1 20 
*END

*D_NET *103 0.000254059
*CONN
*I *434:B I *D sg13g2_nor2_1
*I *433:Y O *D sg13g2_nor3_1
*CAP
1 *434:B 0.000119329
2 *433:Y 0.000119329
3 *434:B *433:C 1.54008e-05
4 *434:B *435:B 0
5 *434:B *210:33 0
6 *53:22 *434:B 0
*RES
1 *433:Y *434:B 41.236 
*END

*D_NET *104 0.000674047
*CONN
*I *435:B I *D sg13g2_xor2_1
*I *434:Y O *D sg13g2_nor2_1
*CAP
1 *435:B 0.000219637
2 *434:Y 0.000219637
3 *435:B *433:C 0
4 *435:B *201:58 0.00014434
5 *435:B *201:77 9.04333e-05
6 *434:A *435:B 0
7 *434:B *435:B 0
8 *53:22 *435:B 0
*RES
1 *434:Y *435:B 42.3484 
*END

*D_NET *105 0.000630839
*CONN
*I *442:A2 I *D sg13g2_o21ai_1
*I *435:X O *D sg13g2_xor2_1
*CAP
1 *442:A2 4.67515e-05
2 *435:X 0.000220835
3 *105:8 0.000267586
4 *442:A2 *442:B1 1.54556e-05
5 *442:A2 *442:A1 8.02105e-05
6 *442:A2 *195:57 0
7 *105:8 *433:C 0
8 *105:8 *130:18 0
9 *105:8 *130:30 0
10 *105:8 *168:21 0
11 *105:8 *204:43 0
*RES
1 *435:X *105:8 42.0806 
2 *105:8 *442:A2 40.5356 
*END

*D_NET *106 0.000717388
*CONN
*I *441:A1 I *D sg13g2_o21ai_1
*I *436:Y O *D sg13g2_nor3_1
*CAP
1 *441:A1 0
2 *436:Y 0.000294614
3 *106:8 0.000294614
4 *106:8 *201:77 0.00012816
5 *106:8 *202:111 0
6 *53:48 *106:8 0
*RES
1 *436:Y *106:8 42.8222 
2 *106:8 *441:A1 40 
*END

*D_NET *107 0.00103368
*CONN
*I *441:A2 I *D sg13g2_o21ai_1
*I *437:Y O *D sg13g2_o21ai_1
*CAP
1 *441:A2 0.000114475
2 *437:Y 0.000139399
3 *107:10 0.000253874
4 *441:A2 *361:B 0.000111032
5 *441:A2 *441:B1 4.78195e-05
6 *441:A2 *195:57 0
7 *441:A2 *199:85 7.84876e-05
8 *107:10 *205:76 0.000288587
9 *53:48 *107:10 0
*RES
1 *437:Y *107:10 41.6583 
2 *107:10 *441:A2 41.1845 
*END

*D_NET *108 0.000322529
*CONN
*I *439:A_N I *D sg13g2_nand2b_1
*I *438:Y O *D sg13g2_nor4_1
*CAP
1 *439:A_N 0.000121764
2 *438:Y 0.000121764
3 *439:A_N *463:B1 0
4 *438:D *439:A_N 7.90009e-05
*RES
1 *438:Y *439:A_N 41.3802 
*END

*D_NET *109 0.000610513
*CONN
*I *440:B1 I *D sg13g2_a21oi_1
*I *439:Y O *D sg13g2_nand2b_1
*CAP
1 *440:B1 0.000265688
2 *439:Y 0.000265688
3 *440:B1 *463:B1 0
4 *440:B1 *152:55 0
5 *440:B1 *194:46 0
6 *440:B1 *195:57 0
7 *463:A1 *440:B1 7.91362e-05
*RES
1 *439:Y *440:B1 42.6986 
*END

*D_NET *110 0.00121709
*CONN
*I *441:B1 I *D sg13g2_o21ai_1
*I *440:Y O *D sg13g2_a21oi_1
*CAP
1 *441:B1 2.86055e-05
2 *440:Y 0.000326425
3 *110:8 0.00035503
4 *441:B1 *442:B1 1.54008e-05
5 *110:8 *195:49 0
6 *110:8 *199:85 0.000443813
7 *110:8 *202:111 0
8 *441:A2 *441:B1 4.78195e-05
9 *463:A1 *110:8 0
10 *53:48 *110:8 0
*RES
1 *440:Y *110:8 43.5638 
2 *110:8 *441:B1 40.3193 
*END

*D_NET *111 0.000588726
*CONN
*I *442:B1 I *D sg13g2_o21ai_1
*I *441:Y O *D sg13g2_o21ai_1
*CAP
1 *442:B1 0.000278935
2 *441:Y 0.000278935
3 *442:B1 *361:B 0
4 *442:B1 *375:B 0
5 *442:B1 *195:57 0
6 *442:B1 *195:59 0
7 *442:B1 *199:85 0
8 *441:B1 *442:B1 1.54008e-05
9 *442:A2 *442:B1 1.54556e-05
*RES
1 *441:Y *442:B1 42.0636 
*END

*D_NET *112 0.00960797
*CONN
*I *450:A2 I *D sg13g2_o21ai_1
*I *442:Y O *D sg13g2_o21ai_1
*CAP
1 *450:A2 0
2 *442:Y 0.000189313
3 *112:18 0.00143962
4 *112:10 0.00162893
5 *112:10 *442:A1 0
6 *112:10 *195:57 0
7 *112:10 *199:54 4.7383e-05
8 *112:10 *199:69 0.000143469
9 *112:18 *448:A2 0.000103389
10 *112:18 *450:B1 0
11 *112:18 *127:10 0
12 *112:18 *164:12 0
13 *112:18 *171:12 0.00265943
14 *112:18 *193:27 0.000209637
15 *112:18 *196:96 0.000391004
16 *112:18 *210:70 0.00054882
17 *112:18 *211:131 0
18 *112:18 *217:20 0.000209637
19 *445:A_N *112:18 0
20 *31:33 *112:18 0
21 *35:52 *112:18 0
22 *43:8 *112:18 0.000441733
23 *65:10 *112:10 0.000112426
24 *65:10 *112:18 0.000284374
25 *65:21 *112:18 0.000653797
26 *65:36 *112:18 0.000545019
*RES
1 *442:Y *112:10 41.6857 
2 *112:10 *112:18 40.7957 
3 *112:18 *450:A2 20 
*END

*D_NET *113 0.00673456
*CONN
*I *444:B1 I *D sg13g2_a21oi_1
*I *471:B I *D sg13g2_nand2_1
*I *443:Y O *D sg13g2_nand2b_1
*CAP
1 *444:B1 3.86717e-05
2 *471:B 0.000265682
3 *443:Y 4.81032e-05
4 *113:16 0.00171824
5 *113:6 0.00153933
6 *444:B1 *473:B 6.49135e-05
7 *444:B1 *157:55 0
8 *444:B1 *189:69 0
9 *471:B *471:A 0
10 *471:B *176:10 0.000175513
11 *113:6 *449:B 0
12 *113:6 *474:C 0
13 *113:16 *358:A 0.0006593
14 *113:16 *360:B 0.000693665
15 *113:16 *473:B 0.000209736
16 *113:16 *474:C 0
17 *113:16 *129:22 0.000465294
18 *113:16 *153:6 0
19 *113:16 *154:10 0
20 *113:16 *174:14 0
21 *113:16 *174:23 0
22 *113:16 *174:36 0.000551031
23 *113:16 *189:69 0
24 *113:16 *192:77 0
25 *452:B *113:16 0.000305088
26 *3:22 *471:B 0
*RES
1 *443:Y *113:6 20.5974 
2 *113:6 *113:16 36.3873 
3 *113:16 *471:B 42.4823 
4 *113:6 *444:B1 20.5356 
*END

*D_NET *114 0.00059506
*CONN
*I *449:A_N I *D sg13g2_nand2b_1
*I *444:Y O *D sg13g2_a21oi_1
*CAP
1 *449:A_N 0
2 *444:Y 9.8815e-05
3 *114:14 0.000198715
4 *114:8 0.00029753
5 *114:14 *189:80 0
6 *501:A *114:8 0
7 *72:35 *114:14 0
*RES
1 *444:Y *114:8 40.8446 
2 *114:8 *114:14 41.6171 
3 *114:14 *449:A_N 40 
*END

*D_NET *115 0.00118348
*CONN
*I *447:B I *D sg13g2_nand3_1
*I *445:Y O *D sg13g2_nand3b_1
*CAP
1 *447:B 0
2 *445:Y 0.000173526
3 *115:10 0.000173526
4 *115:10 *445:C 0
5 *115:10 *469:B 8.0216e-05
6 *115:10 *198:50 0.000128247
7 *115:10 *198:70 0.000340704
8 *79:49 *115:10 0.000287256
*RES
1 *445:Y *115:10 42.6162 
2 *115:10 *447:B 40 
*END

*D_NET *116 0.000665959
*CONN
*I *447:C I *D sg13g2_nand3_1
*I *446:Y O *D sg13g2_o21ai_1
*CAP
1 *447:C 4.47723e-05
2 *446:Y 8.03047e-05
3 *116:10 0.000125077
4 *447:C *462:A2 6.39133e-05
5 *116:10 *446:B1 1.54008e-05
6 *116:10 *462:A2 8.00842e-05
7 *116:10 *196:107 0.000128247
8 *116:10 *198:70 0.00012816
*RES
1 *446:Y *116:10 41.133 
2 *116:10 *447:C 40.4274 
*END

*D_NET *117 0.000994999
*CONN
*I *448:B1 I *D sg13g2_a21oi_1
*I *447:Y O *D sg13g2_nand3_1
*CAP
1 *448:B1 0.0003859
2 *447:Y 0.0003859
3 *448:B1 *450:B1 0
4 *448:B1 *473:B 3.16815e-05
5 *448:B1 *127:10 0
6 *448:B1 *152:25 0
7 *448:B1 *193:31 0
8 *448:B1 *194:59 7.92265e-05
9 *451:B *448:B1 0.00011229
10 *467:B_N *448:B1 0
*RES
1 *447:Y *448:B1 43.6926 
*END

*D_NET *118 0.000276386
*CONN
*I *449:B I *D sg13g2_nand2b_1
*I *448:Y O *D sg13g2_a21oi_1
*CAP
1 *449:B 0.000138193
2 *448:Y 0.000138193
3 *449:B *450:B1 0
4 *449:B *473:B 0
5 *113:6 *449:B 0
*RES
1 *448:Y *449:B 41.3802 
*END

*D_NET *119 0.000961344
*CONN
*I *450:B1 I *D sg13g2_o21ai_1
*I *449:Y O *D sg13g2_nand2b_1
*CAP
1 *450:B1 0.000319462
2 *449:Y 0.000319462
3 *450:B1 *457:A 0
4 *450:B1 *157:55 0
5 *450:B1 *189:69 1.54556e-05
6 *450:B1 *193:27 0
7 *448:B1 *450:B1 0
8 *449:B *450:B1 0
9 *467:B_N *450:B1 0.000306963
10 *112:18 *450:B1 0
*RES
1 *449:Y *450:B1 43.296 
*END

*D_NET *120 0.00125722
*CONN
*I *462:A2 I *D sg13g2_a21oi_1
*I *451:Y O *D sg13g2_nand2_1
*CAP
1 *462:A2 0.000421912
2 *451:Y 0.000421912
3 *462:A2 *469:A 0
4 *462:A2 *152:25 0.000110829
5 *462:A2 *193:44 0
6 *462:A2 *194:59 0.000143171
7 *462:A2 *196:130 1.54008e-05
8 *447:C *462:A2 6.39133e-05
9 *116:10 *462:A2 8.00842e-05
*RES
1 *451:Y *462:A2 44.0479 
*END

*D_NET *121 0.0031044
*CONN
*I *453:B I *D sg13g2_nor2_1
*I *470:B I *D sg13g2_nand2_1
*I *452:Y O *D sg13g2_nand2_1
*CAP
1 *453:B 0.000733968
2 *470:B 0.000191909
3 *452:Y 0
4 *121:4 0.000925877
5 *453:B *356:B 1.54008e-05
6 *453:B *358:B 0
7 *453:B *474:C 0
8 *453:B *153:6 0
9 *453:B *174:14 0.000273189
10 *453:B *192:71 0
11 *470:B *470:A 0
12 *356:A *453:B 0
13 *452:B *470:B 0.000272747
14 *35:14 *453:B 0.000691309
*RES
1 *452:Y *121:4 20 
2 *121:4 *470:B 21.8334 
3 *121:4 *453:B 27.8074 
*END

*D_NET *122 0.00103845
*CONN
*I *463:B1 I *D sg13g2_o21ai_1
*I *454:Y O *D sg13g2_nor2_1
*CAP
1 *463:B1 0.000383699
2 *454:Y 0.000383699
3 *463:B1 *361:B 0
4 *463:B1 *376:B 0
5 *463:B1 *439:B 0.00011211
6 *463:B1 *125:10 4.79124e-05
7 *463:B1 *195:57 0.000111032
8 *463:B1 *209:91 0
9 *439:A_N *463:B1 0
10 *440:B1 *463:B1 0
*RES
1 *454:Y *463:B1 44.4908 
*END

*D_NET *123 0.00293878
*CONN
*I *461:A2 I *D sg13g2_a21oi_1
*I *457:C I *D sg13g2_nor3_1
*I *456:Y O *D sg13g2_nor2_1
*CAP
1 *461:A2 0.000388052
2 *457:C 0.000284781
3 *456:Y 0.000443121
4 *123:10 0.000672833
5 *123:8 0.000443121
6 *457:C *468:A2 0
7 *457:C *472:A2 0.000176537
8 *457:C *534:A 0.000112667
9 *457:C *540:A 0
10 *457:C *151:31 1.54008e-05
11 *457:C *193:31 0
12 *457:C *194:25 0
13 *461:A2 *536:A 0
14 *461:A2 *538:A 0
15 *461:A2 *184:12 0
16 *461:A2 *196:111 0.000112426
17 *461:A2 *196:130 0.000112545
18 *461:A2 *198:74 0.000177295
19 *123:8 *467:A 0
20 *123:8 *472:A2 0
21 *123:8 *194:25 0
22 *123:8 *194:31 0
23 *123:8 *197:10 0
*RES
1 *456:Y *123:8 43.5638 
2 *123:8 *123:10 20 
3 *123:10 *457:C 22.9355 
4 *123:10 *461:A2 23.8007 
*END

*D_NET *124 0.00189638
*CONN
*I *460:B1 I *D sg13g2_a21oi_1
*I *464:A I *D sg13g2_nand2_1
*I *459:B1 I *D sg13g2_a21oi_1
*I *461:B1 I *D sg13g2_a21oi_1
*I *458:X O *D sg13g2_or2_1
*CAP
1 *460:B1 0.000211935
2 *464:A 5.18184e-05
3 *459:B1 0.000150537
4 *461:B1 0
5 *458:X 0
6 *124:19 0.000253463
7 *124:10 0.000276225
8 *124:4 0.000437052
9 *459:B1 *536:A 0.000209856
10 *459:B1 *538:A 0.000209856
11 *460:B1 *460:A1 0
12 *460:B1 *530:A 4.7803e-05
13 *460:B1 *188:14 0
14 *460:B1 *196:130 0
15 *124:10 *458:B 0
16 *124:10 *460:A1 0
17 *124:10 *188:14 0
18 *124:10 *196:130 4.78356e-05
19 sine_out[8] *464:A 0
20 *460:A2 *460:B1 0
21 *460:A2 *124:10 0
22 *11:12 *124:10 0
23 *80:8 *124:10 0
*RES
1 *458:X *124:4 20 
2 *124:4 *124:10 22.0909 
3 *124:10 *461:B1 40 
4 *124:10 *124:19 0.5974 
5 *124:19 *459:B1 41.9364 
6 *124:19 *464:A 40.5974 
7 *124:4 *460:B1 22.0703 
*END

*D_NET *125 0.0034271
*CONN
*I *464:B I *D sg13g2_nand2_1
*I *463:Y O *D sg13g2_o21ai_1
*CAP
1 *464:B 0
2 *463:Y 0.000170907
3 *125:26 5.51719e-05
4 *125:18 0.00130462
5 *125:14 0.00124945
6 *125:10 0.000170907
7 *125:10 *376:B 0
8 *125:10 *155:28 0.000283037
9 *125:10 *155:39 5.31192e-05
10 *125:10 *169:8 2.21839e-05
11 *125:10 *205:76 0
12 *125:26 *538:A 6.97909e-05
13 sine_out[12] *125:26 0
14 *463:B1 *125:10 4.79124e-05
*RES
1 *463:Y *125:10 41.9055 
2 *125:10 *125:14 40 
3 *125:14 *125:18 36.6654 
4 *125:18 *125:26 40.6695 
5 *125:26 *464:B 20 
*END

*D_NET *126 0.000232746
*CONN
*I *466:B I *D sg13g2_nor2_1
*I *465:Y O *D sg13g2_a21oi_1
*CAP
1 *466:B 9.25624e-05
2 *465:Y 9.25624e-05
3 *466:B *465:B1 0
4 *466:B *214:10 4.76216e-05
5 *407:B *466:B 0
*RES
1 *465:Y *466:B 41.133 
*END

*D_NET *127 0.00310875
*CONN
*I *472:A2 I *D sg13g2_o21ai_1
*I *468:A2 I *D sg13g2_a21oi_1
*I *467:Y O *D sg13g2_nor2b_1
*CAP
1 *472:A2 0.000469361
2 *468:A2 0.000277476
3 *467:Y 0.000123559
4 *127:10 0.000870395
5 *468:A2 *534:A 0.000112667
6 *468:A2 *193:31 0.000434505
7 *468:A2 *196:111 0.000112426
8 *472:A2 *472:A1 1.54008e-05
9 *472:A2 *540:A 0.000208878
10 *472:A2 *151:31 0
11 *472:A2 *194:14 0
12 *472:A2 *197:10 7.51285e-05
13 *472:A2 *217:20 0
14 *127:10 *197:10 0.000232421
15 *448:B1 *127:10 0
16 *457:C *468:A2 0
17 *457:C *472:A2 0.000176537
18 *6:8 *472:A2 0
19 *112:18 *127:10 0
20 *123:8 *472:A2 0
*RES
1 *467:Y *127:10 41.4111 
2 *127:10 *468:A2 42.9149 
3 *127:10 *472:A2 44.4393 
*END

*D_NET *128 0.000530005
*CONN
*I *474:C I *D sg13g2_nand3_1
*I *473:Y O *D sg13g2_nand2b_1
*CAP
1 *474:C 0.000257302
2 *473:Y 0.000257302
3 *474:C *470:A 1.54008e-05
4 *453:B *474:C 0
5 *113:6 *474:C 0
6 *113:16 *474:C 0
*RES
1 *473:Y *474:C 42.7192 
*END

*D_NET *129 0.00550423
*CONN
*I *359:B I *D sg13g2_nand4_1
*I *366:A I *D sg13g2_nor2_1
*I *432:A1 I *D sg13g2_o21ai_1
*I *327:Y O *D sg13g2_inv_1
*CAP
1 *359:B 0
2 *366:A 0.000207054
3 *432:A1 0.000266241
4 *327:Y 0.000148238
5 *129:22 0.000944664
6 *129:12 0.000667898
7 *129:8 0.000344767
8 *366:A *360:B 7.98971e-05
9 *366:A *367:A2 0
10 *366:A *154:10 6.48152e-05
11 *366:A *209:24 0
12 *432:A1 *154:31 0
13 *129:12 *359:C 4.77425e-05
14 *129:12 *149:16 0
15 *129:12 *191:12 9.7025e-05
16 *129:22 *359:C 1.54008e-05
17 *129:22 *154:10 0.000506874
18 *129:22 *154:31 0
19 *129:22 *191:12 4.77425e-05
20 *129:22 *191:22 4.72458e-05
21 *493:RESET_B *366:A 1.54008e-05
22 *506:A *129:8 0.000651689
23 *25:8 *432:A1 0.000232977
24 *27:12 *432:A1 0
25 *27:12 *129:22 0
26 *70:29 *129:8 0.000653264
27 *113:16 *129:22 0.000465294
*RES
1 *327:Y *129:8 43.0694 
2 *129:8 *129:12 21.8334 
3 *129:12 *129:22 25.0779 
4 *129:22 *432:A1 42.3278 
5 *129:22 *366:A 41.8334 
6 *129:12 *359:B 20 
*END

*D_NET *130 0.00677963
*CONN
*I *409:A1 I *D sg13g2_o21ai_1
*I *392:A2 I *D sg13g2_a221oi_1
*I *375:A I *D sg13g2_nand2_1
*I *383:B1 I *D sg13g2_a21oi_1
*I *328:Y O *D sg13g2_inv_1
*CAP
1 *409:A1 0.000462208
2 *392:A2 8.55788e-05
3 *375:A 0
4 *383:B1 0
5 *328:Y 7.27833e-05
6 *130:30 0.00141079
7 *130:18 0.000207501
8 *130:12 0.000395652
9 *130:8 0.00112393
10 *392:A2 *202:14 0
11 *409:A1 *423:B1 0.000181192
12 *409:A1 *157:37 0.000712935
13 *409:A1 *158:8 0
14 *409:A1 *194:31 0
15 *130:8 *202:111 0.00023464
16 *130:8 *204:43 0
17 *130:12 *361:B 0
18 *130:18 *433:C 0
19 *130:18 *204:43 0.000550996
20 *130:18 *210:59 0
21 *130:30 *152:55 0
22 *130:30 *157:37 2.6842e-06
23 *130:30 *170:10 0
24 *130:30 *189:92 0
25 *130:30 *194:31 0
26 *130:30 *194:46 0
27 *130:30 *199:69 0
28 *130:30 *202:111 0.00118363
29 *130:30 *209:59 7.49317e-05
30 *409:B1 *409:A1 0
31 *428:B1 *392:A2 0
32 *440:A2 *130:30 0
33 *41:73 *409:A1 1.54008e-05
34 *41:88 *409:A1 6.47768e-05
35 *53:22 *130:12 0
36 *105:8 *130:18 0
37 *105:8 *130:30 0
*RES
1 *328:Y *130:8 41.0918 
2 *130:8 *130:12 21.6171 
3 *130:12 *130:18 42.575 
4 *130:18 *383:B1 20 
5 *130:12 *375:A 20 
6 *130:8 *130:30 9.15928 
7 *130:30 *392:A2 40.7133 
8 *130:30 *409:A1 45.0238 
*END

*D_NET *131 0.00199546
*CONN
*I *337:B1 I *D sg13g2_a21oi_1
*I *332:X O *D sg13g2_and2_1
*CAP
1 *337:B1 0.000328115
2 *332:X 0.000347579
3 *131:10 0.000675694
4 *337:B1 *337:A2 0.000210196
5 *337:B1 *340:A 0
6 *337:B1 *341:A1 0
7 *337:B1 *475:B 0
8 *337:B1 *134:18 8.00842e-05
9 *337:B1 *136:6 0
10 *337:B1 *138:16 8.03692e-05
11 *131:10 *332:B 0
12 *131:10 *336:B 0
13 *4:17 *131:10 0.000144849
14 *32:12 *131:10 0.000128576
*RES
1 *332:X *131:10 43.7904 
2 *131:10 *337:B1 43.502 
*END

*D_NET *132 0.000846811
*CONN
*I *335:B1 I *D sg13g2_o21ai_1
*I *333:Y O *D sg13g2_nand2_1
*CAP
1 *335:B1 0
2 *333:Y 0.000279778
3 *132:8 0.000279778
4 *132:8 *333:B 0.000159096
5 *132:8 *334:B 0.00012816
6 *132:8 *203:20 0
7 *335:A1 *132:8 0
8 *41:29 *132:8 0
*RES
1 *333:Y *132:8 43.0694 
2 *132:8 *335:B1 40 
*END

*D_NET *133 0.000959849
*CONN
*I *476:B I *D sg13g2_xnor2_1
*I *335:A2 I *D sg13g2_o21ai_1
*I *334:Y O *D sg13g2_xnor2_1
*CAP
1 *476:B 9.26169e-05
2 *335:A2 0.000121832
3 *334:Y 0.000146093
4 *133:6 0.000360542
5 *335:A2 *200:38 1.54556e-05
6 *476:B *476:A 8.02763e-05
7 *476:B *210:6 0
8 *133:6 *334:B 0
9 *133:6 *134:6 0.000143033
10 *335:A1 *335:A2 0
11 *520:A *133:6 0
*RES
1 *334:Y *133:6 21.8334 
2 *133:6 *335:A2 21.3802 
3 *133:6 *476:B 21.3802 
*END

*D_NET *134 0.00330793
*CONN
*I *475:A I *D sg13g2_xor2_1
*I *337:A1 I *D sg13g2_a21oi_1
*I *335:Y O *D sg13g2_o21ai_1
*CAP
1 *475:A 0.00015803
2 *337:A1 0
3 *335:Y 0.000278533
4 *134:18 0.000623384
5 *134:6 0.00105995
6 *475:A *334:B 0
7 *475:A *337:A2 0
8 *475:A *475:B 0
9 *475:A *204:84 0
10 *134:6 *334:B 0
11 *134:6 *508:A 0.000207363
12 *134:6 *190:26 0
13 *134:6 *200:8 0
14 *134:6 *200:38 0
15 *134:6 *204:84 0
16 *134:18 *337:A2 8.00842e-05
17 *134:18 *338:A 0.000209796
18 *134:18 *338:B 0.000274643
19 *134:18 *475:B 0
20 *134:18 *190:26 0.000112826
21 *134:18 *190:36 8.02105e-05
22 *134:18 *200:8 0
23 *337:B1 *134:18 8.00842e-05
24 *133:6 *134:6 0.000143033
*RES
1 *335:Y *134:6 22.4485 
2 *134:6 *134:18 46.4375 
3 *134:18 *337:A1 20 
4 *134:6 *475:A 22.0909 
*END

*D_NET *135 0.00178416
*CONN
*I *475:B I *D sg13g2_xor2_1
*I *337:A2 I *D sg13g2_a21oi_1
*I *336:X O *D sg13g2_xor2_1
*CAP
1 *475:B 0.000174539
2 *337:A2 0.000379545
3 *336:X 0
4 *135:4 0.000554084
5 *337:A2 *338:A 8.03692e-05
6 *337:A2 *175:18 0
7 *337:A2 *190:36 0.000209697
8 *475:B *340:B 0
9 *475:B *138:16 0
10 *475:B *175:18 8.02431e-05
11 *475:B *204:84 1.54008e-05
12 *337:B1 *337:A2 0.000210196
13 *337:B1 *475:B 0
14 *475:A *337:A2 0
15 *475:A *475:B 0
16 *134:18 *337:A2 8.00842e-05
17 *134:18 *475:B 0
*RES
1 *336:X *135:4 20 
2 *135:4 *337:A2 23.914 
3 *135:4 *475:B 22.1218 
*END

*D_NET *136 0.000660079
*CONN
*I *340:A I *D sg13g2_xor2_1
*I *341:A1 I *D sg13g2_o21ai_1
*I *337:Y O *D sg13g2_a21oi_1
*CAP
1 *340:A 0.000184794
2 *341:A1 0.000120467
3 *337:Y 2.47787e-05
4 *136:6 0.000330039
5 *340:A *341:A2 0
6 *340:A *138:16 0
7 *341:A1 *341:A2 0
8 *341:A1 *138:16 0
9 *136:6 *138:16 0
10 *337:B1 *340:A 0
11 *337:B1 *341:A1 0
12 *337:B1 *136:6 0
*RES
1 *337:Y *136:6 20.3502 
2 *136:6 *341:A1 21.1021 
3 *136:6 *340:A 21.6171 
*END

*D_NET *137 0.000529477
*CONN
*I *341:B1 I *D sg13g2_o21ai_1
*I *338:Y O *D sg13g2_nand2_1
*CAP
1 *341:B1 0
2 *338:Y 0.000264739
3 *137:8 0.000264739
*RES
1 *338:Y *137:8 42.575 
2 *137:8 *341:B1 40 
*END

*D_NET *138 0.0011683
*CONN
*I *340:B I *D sg13g2_xor2_1
*I *341:A2 I *D sg13g2_o21ai_1
*I *339:Y O *D sg13g2_xnor2_1
*CAP
1 *340:B 4.08909e-05
2 *341:A2 0.000286723
3 *339:Y 0.000192395
4 *138:16 0.00052001
5 *340:B *175:18 4.79124e-05
6 *341:A2 *175:18 0
7 *138:16 *175:18 0
8 *337:B1 *138:16 8.03692e-05
9 *340:A *341:A2 0
10 *340:A *138:16 0
11 *341:A1 *341:A2 0
12 *341:A1 *138:16 0
13 *475:B *340:B 0
14 *475:B *138:16 0
15 *136:6 *138:16 0
*RES
1 *339:Y *138:16 22.472 
2 *138:16 *341:A2 22.4823 
3 *138:16 *340:B 20.6695 
*END

*D_NET *139 0.00252363
*CONN
*I *344:A I *D sg13g2_xor2_1
*I *345:A1 I *D sg13g2_a21oi_1
*I *341:Y O *D sg13g2_o21ai_1
*CAP
1 *344:A 0.00023051
2 *345:A1 0
3 *341:Y 0.000797178
4 *139:12 0.000287173
5 *139:8 0.000853841
6 *344:A *345:B1 0.000339524
7 *139:8 *141:18 0
8 *139:8 *175:18 0
9 *139:8 *211:8 0
10 *139:12 *345:B1 1.54008e-05
11 *33:10 *344:A 0
12 *34:10 *139:8 0
*RES
1 *341:Y *139:8 48.5078 
2 *139:8 *139:12 20.5356 
3 *139:12 *345:A1 20 
4 *139:12 *344:A 22.6162 
*END

*D_NET *140 0.00183844
*CONN
*I *345:B1 I *D sg13g2_a21oi_1
*I *342:X O *D sg13g2_and2_1
*CAP
1 *345:B1 0.000653064
2 *342:X 0.000653064
3 *345:B1 *495:A 0
4 *345:B1 *141:10 0
5 *345:B1 *141:18 0
6 *345:B1 *172:15 0
7 *344:A *345:B1 0.000339524
8 *489:D *345:B1 0.000177388
9 *31:8 *345:B1 0
10 *139:12 *345:B1 1.54008e-05
*RES
1 *342:X *345:B1 46.2109 
*END

*D_NET *141 0.00199027
*CONN
*I *344:B I *D sg13g2_xor2_1
*I *345:A2 I *D sg13g2_a21oi_1
*I *343:X O *D sg13g2_xor2_1
*CAP
1 *344:B 0
2 *345:A2 0
3 *343:X 0.000538124
4 *141:18 0.000368362
5 *141:10 0.000906486
6 *141:10 *196:8 0
7 *141:18 *349:A1 0
8 *141:18 *527:A 0
9 *141:18 *196:8 0
10 *345:B1 *141:10 0
11 *345:B1 *141:18 0
12 *489:RESET_B *141:10 0
13 *489:D *141:10 0.000177295
14 *505:A *141:18 0
15 *16:8 *141:18 0
16 *31:8 *141:10 0
17 *139:8 *141:18 0
*RES
1 *343:X *141:10 25.4075 
2 *141:10 *141:18 43.3578 
3 *141:18 *345:A2 20 
4 *141:10 *344:B 20 
*END

*D_NET *142 0.0027231
*CONN
*I *349:A1 I *D sg13g2_o21ai_1
*I *348:A I *D sg13g2_xor2_1
*I *345:Y O *D sg13g2_a21oi_1
*CAP
1 *349:A1 0.000587051
2 *348:A 7.55528e-05
3 *345:Y 0.00025425
4 *142:10 0.000662604
5 *142:8 0.00025425
6 *348:A *348:B 0
7 *348:A *527:A 0
8 *349:A1 *347:B 4.77425e-05
9 *349:A1 *349:A2 0.000500532
10 *142:8 *524:A 0
11 *505:A *349:A1 0
12 *19:14 *142:8 0.000341119
13 *141:18 *349:A1 0
*RES
1 *345:Y *142:8 42.8222 
2 *142:8 *142:10 20 
3 *142:10 *348:A 20.7519 
4 *142:10 *349:A1 25.5105 
*END

*D_NET *143 0.00174443
*CONN
*I *349:B1 I *D sg13g2_o21ai_1
*I *346:Y O *D sg13g2_nand2_1
*CAP
1 *349:B1 0.000188798
2 *346:Y 0.000393002
3 *143:10 0.0005818
4 *349:B1 *349:A2 0.000273816
5 *349:B1 *211:98 0
6 *143:10 *173:24 0
7 *143:10 *196:8 0.000307019
8 *505:A *143:10 0
*RES
1 *346:Y *143:10 43.6359 
2 *143:10 *349:B1 41.8334 
*END

*D_NET *144 0.00252189
*CONN
*I *349:A2 I *D sg13g2_o21ai_1
*I *348:B I *D sg13g2_xor2_1
*I *347:Y O *D sg13g2_xnor2_1
*CAP
1 *349:A2 0.00047642
2 *348:B 0.000193673
3 *347:Y 0
4 *144:4 0.000670093
5 *348:B *211:98 0.000208063
6 *349:A2 *211:98 0.000199292
7 *348:A *348:B 0
8 *349:B1 *349:A2 0.000273816
9 *349:A1 *349:A2 0.000500532
10 *490:D *348:B 0
*RES
1 *347:Y *144:4 20 
2 *144:4 *348:B 21.8334 
3 *144:4 *349:A2 25.3766 
*END

*D_NET *145 0.00134714
*CONN
*I *351:A I *D sg13g2_xnor2_1
*I *349:Y O *D sg13g2_o21ai_1
*CAP
1 *351:A 0.000121766
2 *349:Y 0.000298369
3 *145:8 0.000420135
4 *351:A *351:B 0.000208709
5 *145:8 *172:15 0
6 *35:6 *351:A 4.74248e-05
7 *35:12 *145:8 7.43655e-05
8 *35:69 *351:A 0.000176367
*RES
1 *349:Y *145:8 42.4358 
2 *145:8 *351:A 41.4008 
*END

*D_NET *146 0.00146946
*CONN
*I *351:B I *D sg13g2_xnor2_1
*I *350:Y O *D sg13g2_xnor2_1
*CAP
1 *351:B 0.00034827
2 *350:Y 0.00034827
3 *351:B *176:14 0.000564208
4 *351:B *196:35 0
5 *351:A *351:B 0.000208709
6 *35:6 *351:B 0
*RES
1 *350:Y *351:B 43.7801 
*END

*D_NET *147 0.00101089
*CONN
*I *436:B I *D sg13g2_nor3_1
*I *352:Y O *D sg13g2_nor2_1
*CAP
1 *436:B 0.00011751
2 *352:Y 0.000291798
3 *147:10 0.000409309
4 *436:B *201:77 0
5 *436:B *202:111 0
6 *147:10 *204:43 1.54556e-05
7 *147:10 *207:34 0
8 *436:C *436:B 0.000176817
9 *41:116 *147:10 0
*RES
1 *352:Y *147:10 42.8016 
2 *147:10 *436:B 41.1845 
*END

*D_NET *148 0.00514574
*CONN
*I *354:A I *D sg13g2_inv_1
*I *423:A1 I *D sg13g2_o21ai_1
*I *373:A2 I *D sg13g2_a22oi_1
*I *398:A I *D sg13g2_nor2b_1
*I *388:B I *D sg13g2_xnor2_1
*I *353:Y O *D sg13g2_nor2_1
*CAP
1 *354:A 5.255e-05
2 *423:A1 0
3 *373:A2 0
4 *398:A 0.000339836
5 *388:B 0.000150725
6 *353:Y 0.000182423
7 *148:50 0.000444382
8 *148:42 0.000691078
9 *148:38 0.000518758
10 *148:10 0.000490561
11 *148:8 0.000401936
12 *388:B *175:31 0
13 *388:B *189:18 0
14 *388:B *207:91 1.54008e-05
15 *398:A *400:B1 0
16 *398:A *161:8 0.000286048
17 *398:A *175:31 0
18 *148:8 *196:35 0
19 *148:8 *207:91 0
20 *148:8 *207:106 7.93733e-05
21 *148:42 *423:A2 1.54008e-05
22 *148:50 *205:27 0
23 *148:50 *205:54 0.000209703
24 *148:50 *211:62 0
25 *388:A *388:B 1.54008e-05
26 *411:C *354:A 0
27 *411:C *148:38 0
28 *411:C *148:42 0
29 *412:B1 *148:38 0.000208195
30 *412:B1 *148:42 2.14475e-05
31 *413:A2 *148:50 0.000274387
32 *31:33 *148:50 0.000181279
33 *70:10 *398:A 0
34 *73:18 *148:42 0
35 *77:8 *388:B 0.000282518
36 *101:14 *398:A 0.000284339
37 *102:12 *148:50 0
*RES
1 *353:Y *148:8 21.751 
2 *148:8 *148:10 20 
3 *148:10 *388:B 41.6583 
4 *148:10 *398:A 43.7801 
5 *148:8 *148:38 2.266 
6 *148:38 *148:42 2.3999 
7 *148:42 *148:50 44.4084 
8 *148:50 *373:A2 20 
9 *148:42 *423:A1 20 
10 *148:38 *354:A 20.6695 
*END

*D_NET *149 0.00357536
*CONN
*I *355:B I *D sg13g2_nor2_1
*I *378:A I *D sg13g2_and2_1
*I *406:A2 I *D sg13g2_o21ai_1
*I *426:A I *D sg13g2_nand2_1
*I *354:Y O *D sg13g2_inv_1
*CAP
1 *355:B 4.8055e-05
2 *378:A 0
3 *406:A2 0
4 *426:A 0
5 *354:Y 0.000513837
6 *149:46 0.000281166
7 *149:33 2.19604e-05
8 *149:27 0.000501217
9 *149:16 0.000474102
10 *149:10 0.000324066
11 *149:8 0.000513837
12 *149:8 *151:12 0
13 *149:8 *209:8 0.00018128
14 *149:8 *211:74 0.000126441
15 *149:16 *406:A1 0
16 *149:27 *186:25 0
17 *149:33 *406:B1 3.15829e-05
18 *149:46 *171:12 0
19 *355:A *355:B 0
20 *355:A *149:8 0
21 *445:A_N *149:46 0
22 *501:A *149:16 0.000271976
23 *13:10 *149:8 0.000285836
24 *41:63 *149:8 0
25 *43:14 *149:27 0
26 *50:10 *149:16 0
27 *97:14 *149:16 0
28 *97:14 *149:33 0
29 *97:20 *149:27 0
30 *97:20 *149:46 0
31 *102:12 *149:27 0
32 *129:12 *149:16 0
*RES
1 *354:Y *149:8 44.5526 
2 *149:8 *149:10 20 
3 *149:10 *149:16 2.8387 
4 *149:16 *426:A 20 
5 *149:16 *149:27 42.0497 
6 *149:27 *149:33 40.2112 
7 *149:33 *406:A2 20 
8 *149:27 *149:46 43.0797 
9 *149:46 *378:A 20 
10 *149:10 *355:B 20.6231 
*END

*D_NET *150 0.000981761
*CONN
*I *359:C I *D sg13g2_nand4_1
*I *355:Y O *D sg13g2_nor2_1
*CAP
1 *359:C 3.7647e-05
2 *355:Y 0.000218701
3 *150:10 0.000256348
4 *150:10 *151:12 0
5 *13:10 *150:10 0.000124862
6 *13:18 *150:10 0.000281059
7 *129:12 *359:C 4.77425e-05
8 *129:22 *359:C 1.54008e-05
*RES
1 *355:Y *150:10 42.1527 
2 *150:10 *359:C 40.3193 
*END

*D_NET *151 0.00570314
*CONN
*I *457:B I *D sg13g2_nor3_1
*I *498:A I *D sg13g2_buf_1
*I *356:X O *D sg13g2_or2_1
*CAP
1 *457:B 0
2 *498:A 0
3 *356:X 0
4 *151:31 0.000149867
5 *151:25 0.000596762
6 *151:12 0.000698788
7 *151:4 0.00114568
8 *151:12 *153:12 0.000179386
9 *151:12 *182:16 4.77425e-05
10 *151:12 *191:8 0.000651613
11 *151:12 *196:47 0.000816631
12 *151:25 *182:16 1.54008e-05
13 *151:25 *189:80 0
14 *151:25 *196:74 0
15 *151:31 *217:20 0.000177306
16 *457:C *151:31 1.54008e-05
17 *472:A2 *151:31 0
18 *13:10 *151:12 0.000493483
19 *13:18 *151:12 0
20 *35:29 *151:12 4.77425e-05
21 *35:29 *151:25 0.000192723
22 *35:52 *151:25 0
23 *70:46 *151:25 0.00047461
24 *149:8 *151:12 0
25 *150:10 *151:12 0
*RES
1 *356:X *151:4 20 
2 *151:4 *151:12 48.5799 
3 *151:12 *498:A 20 
4 *151:4 *151:25 44.532 
5 *151:25 *151:31 41.4008 
6 *151:31 *457:B 20 
*END

*D_NET *152 0.0118847
*CONN
*I *440:A1 I *D sg13g2_a21oi_1
*I *473:B I *D sg13g2_nand2b_1
*I *451:A I *D sg13g2_nand2_1
*I *423:B1 I *D sg13g2_o21ai_1
*I *357:Y O *D sg13g2_nor2_1
*CAP
1 *440:A1 0
2 *473:B 0.000582913
3 *451:A 0
4 *423:B1 0.000772817
5 *357:Y 0
6 *152:55 0.000905508
7 *152:25 0.000960986
8 *152:8 0.00129534
9 *152:4 0.00104996
10 *423:B1 *423:A2 0.000208944
11 *423:B1 *158:8 0.000433882
12 *423:B1 *194:31 0.000340482
13 *423:B1 *207:134 0
14 *423:B1 *211:131 0
15 *473:B *406:B1 0
16 *473:B *157:55 0
17 *473:B *186:31 0
18 *473:B *198:27 0.000246222
19 *473:B *198:42 0.000208878
20 *152:8 *357:A 4.77425e-05
21 *152:8 *195:32 0
22 *152:25 *157:37 0
23 *152:25 *194:31 0.00106509
24 *152:25 *196:107 0.000874321
25 *152:25 *198:42 0.000176333
26 *152:55 *170:10 0
27 *152:55 *189:86 0.000765789
28 *152:55 *189:92 0
29 *152:55 *195:34 0.000340374
30 *152:55 *195:49 0
31 *152:55 *202:59 0
32 *152:55 *209:74 0
33 *409:B1 *152:8 7.98582e-05
34 *409:A1 *423:B1 0.000181192
35 *411:C *423:B1 0
36 *430:C1 *423:B1 0.000242154
37 *440:A2 *152:55 1.49483e-05
38 *440:B1 *152:55 0
39 *444:B1 *473:B 6.49135e-05
40 *448:B1 *473:B 3.16815e-05
41 *448:B1 *152:25 0
42 *449:B *473:B 0
43 *451:B *473:B 0.00011229
44 *462:A2 *152:25 0.000110829
45 *473:A_N *473:B 0.000177203
46 *63:10 *152:55 0.000336465
47 *94:10 *423:B1 4.78524e-05
48 *113:16 *473:B 0.000209736
49 *130:30 *152:55 0
*RES
1 *357:Y *152:4 20 
2 *152:4 *152:8 21.4008 
3 *152:8 *423:B1 48.6108 
4 *152:8 *152:25 26.4478 
5 *152:25 *451:A 20 
6 *152:25 *473:B 26.5302 
7 *152:4 *152:55 49.4348 
8 *152:55 *440:A1 20 
*END

*D_NET *153 0.0026631
*CONN
*I *452:A I *D sg13g2_nand2_1
*I *359:D I *D sg13g2_nand4_1
*I *358:Y O *D sg13g2_nor2_1
*CAP
1 *452:A 3.85688e-05
2 *359:D 0
3 *358:Y 0.000470777
4 *153:12 8.19431e-05
5 *153:6 0.000591289
6 *153:6 *358:A 0.000594988
7 *153:6 *358:B 0.000627325
8 *153:6 *189:57 6.34198e-05
9 *452:B *153:6 1.54008e-05
10 *453:B *153:6 0
11 *13:18 *153:12 0
12 *113:16 *153:6 0
13 *151:12 *153:12 0.000179386
*RES
1 *358:Y *153:6 25.2942 
2 *153:6 *153:12 40.8446 
3 *153:12 *359:D 20 
4 *153:6 *452:A 20.3502 
*END

*D_NET *154 0.00602577
*CONN
*I *368:A I *D sg13g2_and2_1
*I *360:B I *D sg13g2_xnor2_1
*I *359:Y O *D sg13g2_nand4_1
*CAP
1 *368:A 0
2 *360:B 0.000641681
3 *359:Y 0.00043232
4 *154:31 0.000559885
5 *154:10 0.00163389
6 *360:B *360:A 1.54008e-05
7 *360:B *492:CLK 0
8 *154:10 *367:A2 0.000428619
9 *154:10 *191:22 4.72458e-05
10 *355:A *154:10 0
11 *366:A *360:B 7.98971e-05
12 *366:A *154:10 6.48152e-05
13 *432:A1 *154:31 0
14 *491:RESET_B *360:B 0
15 *493:RESET_B *154:10 0
16 *494:A *360:B 0
17 *3:22 *360:B 0
18 *25:8 *154:31 0.000921482
19 *35:12 *154:31 0
20 *113:16 *360:B 0.000693665
21 *113:16 *154:10 0
22 *129:22 *154:10 0.000506874
23 *129:22 *154:31 0
*RES
1 *359:Y *154:10 24.944 
2 *154:10 *360:B 27.1276 
3 *154:10 *154:31 45.7886 
4 *154:31 *368:A 20 
*END

*D_NET *155 0.00454592
*CONN
*I *363:B I *D sg13g2_nand2_1
*I *377:A2 I *D sg13g2_a21oi_1
*I *376:B I *D sg13g2_nand2_1
*I *438:B I *D sg13g2_nor4_1
*I *437:A1 I *D sg13g2_o21ai_1
*I *361:X O *D sg13g2_and2_1
*CAP
1 *363:B 0.000219518
2 *377:A2 0.000256055
3 *376:B 5.40359e-05
4 *438:B 4.40308e-05
5 *437:A1 5.24437e-05
6 *361:X 9.93474e-05
7 *155:39 0.000577235
8 *155:28 0.000694051
9 *155:17 0.000651636
10 *155:6 0.000221044
11 *363:B *363:A 0
12 *363:B *424:A 0.000160013
13 *363:B *157:14 0.000176603
14 *363:B *209:91 0.000181608
15 *376:B *209:91 0
16 *377:A2 *424:A 4.77425e-05
17 *377:A2 *209:63 1.00461e-05
18 *377:A2 *209:74 0.000112333
19 *377:A2 *209:91 0
20 *437:A1 *361:B 8.00842e-05
21 *437:A1 *205:87 0
22 *437:A1 *206:116 0
23 *438:B *199:100 3.15716e-05
24 *155:6 *361:B 0.000177273
25 *155:6 *206:116 0
26 *155:17 *199:100 0.00012816
27 *155:28 *205:76 0
28 *155:39 *424:A 7.51285e-05
29 *155:39 *169:8 0
30 *155:39 *209:91 0.00012816
31 *392:B2 *377:A2 0
32 *438:C *438:B 3.16486e-05
33 *438:D *438:B 0
34 *463:B1 *376:B 0
35 *463:A2 *155:28 0
36 *71:17 *155:28 0
37 *125:10 *376:B 0
38 *125:10 *155:28 0.000283037
39 *125:10 *155:39 5.31192e-05
*RES
1 *361:X *155:6 21.1845 
2 *155:6 *437:A1 20.5356 
3 *155:6 *155:17 20.8446 
4 *155:17 *438:B 40.4274 
5 *155:17 *155:28 4.7998 
6 *155:28 *376:B 40.5356 
7 *155:28 *155:39 1.339 
8 *155:39 *377:A2 42.266 
9 *155:39 *363:B 42.678 
*END

*D_NET *156 0.000195424
*CONN
*I *415:A1 I *D sg13g2_a21o_1
*I *362:Y O *D sg13g2_nand2_1
*CAP
1 *415:A1 0
2 *362:Y 9.77118e-05
3 *156:8 9.77118e-05
4 *156:8 *204:16 0
5 *156:8 *206:62 0
6 *56:10 *156:8 0
*RES
1 *362:Y *156:8 41.0918 
2 *156:8 *415:A1 40 
*END

*D_NET *157 0.00844189
*CONN
*I *365:A I *D sg13g2_nor2_1
*I *456:B I *D sg13g2_nor2_1
*I *443:B I *D sg13g2_nand2b_1
*I *394:A1 I *D sg13g2_a21oi_1
*I *363:Y O *D sg13g2_nand2_1
*CAP
1 *365:A 4.74092e-05
2 *456:B 2.57853e-05
3 *443:B 0
4 *394:A1 0
5 *363:Y 0.000391632
6 *157:55 0.000685365
7 *157:45 0.00111359
8 *157:37 0.000988095
9 *157:26 0.000338323
10 *157:18 0.00121896
11 *157:14 0.000734022
12 *365:A *159:16 4.77425e-05
13 *365:A *195:32 0
14 *456:B *198:42 4.77425e-05
15 *157:14 *209:91 0
16 *157:18 *202:33 0
17 *157:18 *205:60 0
18 *157:26 *394:A2 8.01776e-05
19 *157:26 *205:60 0
20 *157:37 *364:A 0
21 *157:37 *159:8 7.52149e-05
22 *157:37 *189:92 0
23 *157:37 *196:107 0.000181608
24 *157:37 *198:50 0
25 *157:37 *202:59 0
26 *157:45 *467:A 0.000157705
27 *157:45 *159:16 0.000305088
28 *157:45 *170:18 0.000446767
29 *157:45 *195:26 0.000176954
30 *157:45 *197:10 0.000126354
31 *157:55 *448:A2 4.20771e-05
32 *157:55 *171:8 4.78524e-05
33 *157:55 *189:69 1.54556e-05
34 *157:55 *197:10 0
35 *157:55 *198:27 0.000112426
36 *157:55 *198:42 4.77425e-05
37 *363:B *157:14 0.000176603
38 *409:A1 *157:37 0.000712935
39 *428:A1 *157:26 8.01776e-05
40 *444:B1 *157:55 0
41 *445:A_N *157:45 0
42 *450:B1 *157:55 0
43 *473:B *157:55 0
44 *65:36 *157:26 1.54008e-05
45 *130:30 *157:37 2.6842e-06
46 *152:25 *157:37 0
*RES
1 *363:Y *157:14 44.12 
2 *157:14 *157:18 23.3475 
3 *157:18 *157:26 43.6668 
4 *157:26 *394:A1 20 
5 *157:18 *157:37 45.7886 
6 *157:37 *157:45 44.8719 
7 *157:45 *157:55 45.7165 
8 *157:55 *443:B 20 
9 *157:45 *456:B 20.3193 
10 *157:37 *365:A 20.5356 
*END

*D_NET *158 0.0103503
*CONN
*I *365:B I *D sg13g2_nor2_1
*I *465:B1 I *D sg13g2_a21oi_1
*I *429:A I *D sg13g2_nor2_1
*I *419:A I *D sg13g2_nor2_1
*I *389:B1 I *D sg13g2_a21oi_1
*I *364:Y O *D sg13g2_nand2_1
*CAP
1 *365:B 0.000260925
2 *465:B1 3.13459e-05
3 *429:A 8.91589e-05
4 *419:A 0
5 *389:B1 0.000794015
6 *364:Y 0
7 *158:63 0.000394081
8 *158:22 0.00202018
9 *158:8 0.001841
10 *158:4 0.000627484
11 *365:B *195:32 0.000143818
12 *389:B1 *402:B 1.54008e-05
13 *389:B1 *402:A_N 8.00842e-05
14 *389:B1 *420:A1 0
15 *389:B1 *431:A 0
16 *389:B1 *512:A 0.000175799
17 *389:B1 *204:8 4.77425e-05
18 *389:B1 *211:62 0
19 *429:A *171:12 0.000103961
20 *429:A *203:83 0
21 *158:8 *364:A 0.000240498
22 *158:8 *364:B 0.000111588
23 *158:8 *207:134 0
24 *158:22 *379:A2 0.000232834
25 *158:22 *421:B 0
26 *158:22 *167:10 0.000144768
27 *158:22 *171:12 0.00149785
28 *158:22 *203:64 0.000179892
29 *158:22 *203:83 0
30 *158:22 *210:70 0.000181297
31 *158:22 *210:81 0
32 *158:22 *210:106 0
33 *158:63 *465:A1 0.000234311
34 *380:A2 *158:22 0
35 *390:B *389:B1 0
36 *397:B1 *158:22 0
37 *407:B *465:B1 0
38 *409:B1 *158:8 0
39 *409:A1 *158:8 0
40 *421:A_N *158:22 8.00842e-05
41 *423:B1 *158:8 0.000433882
42 *466:B *465:B1 0
43 *27:12 *389:B1 4.63397e-05
44 *41:73 *158:8 0
45 *56:53 *389:B1 0
46 *62:10 *389:B1 0
47 *74:12 *389:B1 0
48 *79:10 *365:B 0.000159839
49 *79:10 *158:63 0.00018211
50 *81:6 *158:8 0
51 *92:22 *158:22 0
*RES
1 *364:Y *158:4 20 
2 *158:4 *158:8 25.2942 
3 *158:8 *158:22 33.1005 
4 *158:22 *389:B1 28.3018 
5 *158:22 *419:A 20 
6 *158:8 *429:A 40.9167 
7 *158:4 *158:63 21.5862 
8 *158:63 *465:B1 40.3193 
9 *158:63 *365:B 42.8119 
*END

*D_NET *159 0.00673917
*CONN
*I *469:B I *D sg13g2_nor2_1
*I *367:A1 I *D sg13g2_a21o_1
*I *365:Y O *D sg13g2_nor2_1
*CAP
1 *469:B 0.000496098
2 *367:A1 0
3 *365:Y 3.64826e-05
4 *159:22 0.00012974
5 *159:16 0.0013326
6 *159:8 0.00173544
7 *469:B *407:A 0
8 *469:B *446:A1 3.23417e-05
9 *469:B *469:A 0
10 *469:B *196:107 0.000182023
11 *469:B *198:42 4.77425e-05
12 *469:B *198:50 0.000431353
13 *159:8 *198:50 0.000128247
14 *159:16 *327:A 0
15 *159:16 *410:B 0
16 *159:16 *176:14 0
17 *159:16 *191:37 4.77425e-05
18 *159:16 *192:38 4.77425e-05
19 *159:16 *195:26 0
20 *159:16 *196:107 0
21 *159:16 *198:27 0
22 *159:16 *209:45 0
23 *159:22 *161:8 0
24 *159:22 *175:31 0
25 *159:22 *191:37 0.000286081
26 *355:A *159:16 0
27 *365:A *159:16 4.77425e-05
28 *407:B *159:16 0.000919271
29 *446:A2 *469:B 0
30 *501:A *159:16 0
31 *506:A *159:16 4.77425e-05
32 *13:10 *159:16 8.01773e-05
33 *70:10 *159:16 0
34 *79:34 *469:B 0
35 *82:12 *159:16 0.000177071
36 *97:14 *159:16 0
37 *101:14 *159:22 7.30101e-05
38 *115:10 *469:B 8.0216e-05
39 *157:37 *159:8 7.52149e-05
40 *157:45 *159:16 0.000305088
*RES
1 *365:Y *159:8 40.5974 
2 *159:8 *159:16 32.0201 
3 *159:16 *159:22 41.5862 
4 *159:22 *367:A1 20 
5 *159:8 *469:B 45.8195 
*END

*D_NET *160 0.00194657
*CONN
*I *367:A2 I *D sg13g2_a21o_1
*I *366:Y O *D sg13g2_nor2_1
*CAP
1 *367:A2 0.000582112
2 *366:Y 0.000582112
3 *367:A2 *496:A 0
4 *367:A2 *209:24 0.000305904
5 *366:A *367:A2 0
6 *493:RESET_B *367:A2 4.78195e-05
7 *154:10 *367:A2 0.000428619
*RES
1 *366:Y *367:A2 46.6023 
*END

*D_NET *161 0.00214792
*CONN
*I *368:B I *D sg13g2_and2_1
*I *367:X O *D sg13g2_a21o_1
*CAP
1 *368:B 0.000156949
2 *367:X 0.000262017
3 *161:8 0.000418966
4 *368:B *196:35 0.000240091
5 *368:B *207:106 7.9046e-05
6 *161:8 *175:31 0.000704803
7 *398:A *161:8 0.000286048
8 *101:14 *161:8 0
9 *159:22 *161:8 0
*RES
1 *367:X *161:8 43.3166 
2 *161:8 *368:B 41.6171 
*END

*D_NET *162 0.0058901
*CONN
*I *401:B1 I *D sg13g2_a21oi_1
*I *380:B1 I *D sg13g2_a21oi_1
*I *416:B1 I *D sg13g2_a21oi_1
*I *369:Y O *D sg13g2_nand2b_1
*CAP
1 *401:B1 0
2 *380:B1 6.84928e-05
3 *416:B1 0.000126722
4 *369:Y 6.99046e-05
5 *162:34 0.000846791
6 *162:19 0.00145741
7 *162:8 0.000738748
8 *416:B1 *199:28 0.000209676
9 *162:8 *417:A1 0
10 *162:19 *417:A1 0
11 *162:19 *201:10 0
12 *162:19 *201:12 0
13 *162:19 *201:16 0
14 *162:34 *166:8 0
15 *162:34 *201:10 0
16 *162:34 *209:47 0.000655244
17 *162:34 *209:49 0.00055058
18 *162:34 *209:59 0.000126047
19 *386:B *416:B1 1.54008e-05
20 *430:A2 *162:34 6.43973e-05
21 *31:33 *162:34 0
22 *31:37 *162:34 7.48209e-05
23 *52:8 *162:34 0.00059738
24 *53:41 *162:19 0
25 *54:12 *416:B1 0
26 *56:10 *416:B1 0
27 *73:6 *162:34 7.97045e-05
28 *85:8 *162:19 0
29 *87:8 *162:19 0
30 *89:10 *162:19 0
31 *101:14 *162:34 0.000208785
32 *102:12 *162:19 0
33 *102:12 *162:34 0
*RES
1 *369:Y *162:8 40.5974 
2 *162:8 *416:B1 41.4008 
3 *162:8 *162:19 4.5526 
4 *162:19 *380:B1 40.5356 
5 *162:19 *162:34 30.1558 
6 *162:34 *401:B1 20 
*END

*D_NET *163 0.00102827
*CONN
*I *465:A1 I *D sg13g2_a21oi_1
*I *391:A_N I *D sg13g2_nand2b_1
*I *370:Y O *D sg13g2_nor2_1
*CAP
1 *465:A1 0.000160587
2 *391:A_N 5.93617e-05
3 *370:Y 2.78907e-05
4 *163:8 0.000247839
5 *391:A_N *207:142 0.000182109
6 *391:A_N *209:91 0
7 *465:A1 *207:142 5.30319e-05
8 *163:8 *370:A 3.23417e-05
9 *163:8 *387:B1 0
10 *163:8 *207:134 1.54008e-05
11 *163:8 *209:91 1.54008e-05
12 *158:63 *465:A1 0.000234311
*RES
1 *370:Y *163:8 40.3193 
2 *163:8 *391:A_N 40.8446 
3 *163:8 *465:A1 42.0806 
*END

*D_NET *164 0.00195567
*CONN
*I *423:A2 I *D sg13g2_o21ai_1
*I *372:A I *D sg13g2_inv_1
*I *373:B1 I *D sg13g2_a22oi_1
*I *371:Y O *D sg13g2_xnor2_1
*CAP
1 *423:A2 0.000202579
2 *372:A 0.000179
3 *373:B1 0
4 *371:Y 0.000202579
5 *164:12 0.000326513
6 *164:4 0.000505513
7 *372:A *207:134 0.000241979
8 *372:A *210:106 0
9 *423:A2 *207:134 0
10 *164:12 *166:8 7.31655e-05
11 *164:12 *205:54 0
12 *395:B *164:12 0
13 *423:B1 *423:A2 0.000208944
14 *65:36 *164:12 0
15 *73:18 *423:A2 0
16 *112:18 *164:12 0
17 *148:42 *423:A2 1.54008e-05
*RES
1 *371:Y *164:4 20 
2 *164:4 *164:12 43.1106 
3 *164:12 *373:B1 20 
4 *164:4 *372:A 21.9673 
5 *371:Y *423:A2 42.2454 
*END

*D_NET *165 0.000845527
*CONN
*I *394:A2 I *D sg13g2_a21oi_1
*I *372:Y O *D sg13g2_inv_1
*CAP
1 *394:A2 0.000239023
2 *372:Y 0.000239023
3 *394:A2 *207:134 0
4 *394:A2 *210:106 0.000159551
5 *428:A1 *394:A2 0
6 *428:A2 *394:A2 0.000127752
7 *157:26 *394:A2 8.01776e-05
*RES
1 *372:Y *394:A2 42.5338 
*END

*D_NET *166 0.00186285
*CONN
*I *374:A_N I *D sg13g2_nand2b_1
*I *418:A2 I *D sg13g2_o21ai_1
*I *373:Y O *D sg13g2_a22oi_1
*CAP
1 *374:A_N 5.61002e-05
2 *418:A2 0.000180347
3 *373:Y 0.000610654
4 *166:8 0.000847101
5 *418:A2 *201:12 0
6 *418:A2 *201:16 0
7 *418:A2 *201:44 0
8 *166:8 *201:10 0
9 *52:8 *166:8 0
10 *65:10 *418:A2 0
11 *65:21 *166:8 0
12 *65:36 *166:8 0
13 *92:22 *374:A_N 8.00842e-05
14 *92:22 *418:A2 1.54008e-05
15 *162:34 *166:8 0
16 *164:12 *166:8 7.31655e-05
*RES
1 *373:Y *166:8 45.047 
2 *166:8 *418:A2 41.3802 
3 *166:8 *374:A_N 40.5356 
*END

*D_NET *167 0.00102698
*CONN
*I *380:A1 I *D sg13g2_a21oi_1
*I *396:B_N I *D sg13g2_nor2b_1
*I *374:Y O *D sg13g2_nand2b_1
*CAP
1 *380:A1 0
2 *396:B_N 0.000168522
3 *374:Y 0.000217143
4 *167:10 0.000385665
5 *396:B_N *201:10 1.54008e-05
6 *380:A2 *396:B_N 1.54008e-05
7 *380:A2 *167:10 8.00842e-05
8 *158:22 *167:10 0.000144768
*RES
1 *374:Y *167:10 22.5956 
2 *167:10 *396:B_N 21.9158 
3 *167:10 *380:A1 20 
*END

*D_NET *168 0.0026989
*CONN
*I *379:A2 I *D sg13g2_o21ai_1
*I *421:B I *D sg13g2_nand2b_1
*I *433:C I *D sg13g2_nor3_1
*I *375:Y O *D sg13g2_nand2_1
*CAP
1 *379:A2 0.000170256
2 *421:B 5.48396e-05
3 *433:C 0.000258717
4 *375:Y 0.000124295
5 *168:21 0.000559939
6 *168:8 0.000717856
7 *379:A2 *194:46 0
8 *379:A2 *210:81 0.000153407
9 *421:B *195:57 4.77425e-05
10 *421:B *210:81 0
11 *433:C *210:59 0
12 *433:C *210:70 0
13 *168:8 *442:A1 0
14 *168:21 *195:57 0.000332816
15 *168:21 *199:69 0
16 *168:21 *210:70 0
17 *421:A_N *421:B 1.54008e-05
18 *434:A *433:C 0
19 *434:B *433:C 1.54008e-05
20 *435:B *433:C 0
21 *53:22 *433:C 1.54008e-05
22 *53:22 *168:8 0
23 *105:8 *433:C 0
24 *105:8 *168:21 0
25 *130:18 *433:C 0
26 *158:22 *379:A2 0.000232834
27 *158:22 *421:B 0
*RES
1 *375:Y *168:8 41.1845 
2 *168:8 *433:C 42.1218 
3 *168:8 *168:21 3.0694 
4 *168:21 *421:B 40.5356 
5 *168:21 *379:A2 42.1218 
*END

*D_NET *169 0.000607223
*CONN
*I *424:B I *D sg13g2_nand3_1
*I *376:Y O *D sg13g2_nand2_1
*CAP
1 *424:B 0
2 *376:Y 8.4517e-05
3 *169:8 8.4517e-05
4 *169:8 *424:A 0.00012816
5 *169:8 *205:76 0.000287845
6 *125:10 *169:8 2.21839e-05
7 *155:39 *169:8 0
*RES
1 *376:Y *169:8 41.339 
2 *169:8 *424:B 40 
*END

*D_NET *170 0.00662617
*CONN
*I *392:B1 I *D sg13g2_a221oi_1
*I *427:A I *D sg13g2_xnor2_1
*I *467:A I *D sg13g2_nor2b_1
*I *378:B I *D sg13g2_and2_1
*I *377:Y O *D sg13g2_a21oi_1
*CAP
1 *392:B1 2.18538e-05
2 *427:A 0
3 *467:A 0.000255958
4 *378:B 0.000177786
5 *377:Y 0.000227681
6 *170:18 0.0010331
7 *170:14 0.000806258
8 *170:12 0.000228755
9 *170:10 0.000227681
10 *378:B *406:B1 0
11 *378:B *197:10 0.000208878
12 *392:B1 *387:B1 3.23417e-05
13 *392:B1 *202:14 4.77425e-05
14 *467:A *197:10 0
15 *170:10 *189:92 0.000179888
16 *170:10 *209:59 7.34778e-05
17 *170:10 *209:63 4.24265e-05
18 *170:10 *209:74 3.78662e-05
19 *170:14 *387:B1 4.77425e-05
20 *170:14 *202:14 0.00030522
21 *170:18 *202:14 0
22 *170:18 *203:83 0
23 *427:B *170:14 4.78028e-05
24 *41:88 *378:B 1.54008e-05
25 *97:22 *467:A 0.000179386
26 *97:22 *170:18 0.00182445
27 *99:8 *170:18 0
28 *123:8 *467:A 0
29 *130:30 *170:10 0
30 *152:55 *170:10 0
31 *157:45 *467:A 0.000157705
32 *157:45 *170:18 0.000446767
*RES
1 *377:Y *170:10 42.369 
2 *170:10 *170:12 20 
3 *170:12 *170:14 2.0497 
4 *170:14 *170:18 28.5078 
5 *170:18 *378:B 41.8334 
6 *170:18 *467:A 42.575 
7 *170:14 *427:A 20 
8 *170:12 *392:B1 20.3193 
*END

*D_NET *171 0.00624142
*CONN
*I *448:A2 I *D sg13g2_a21oi_1
*I *379:B1 I *D sg13g2_o21ai_1
*I *378:X O *D sg13g2_and2_1
*CAP
1 *448:A2 0.000100749
2 *379:B1 0
3 *378:X 2.50715e-05
4 *171:12 0.000722643
5 *171:8 0.000848464
6 *448:A2 *198:27 9.6255e-06
7 *448:A2 *198:42 3.24516e-05
8 *171:8 *197:10 4.78524e-05
9 *171:12 *203:83 0
10 *429:A *171:12 0.000103961
11 *445:A_N *448:A2 0
12 *445:A_N *171:12 0
13 *112:18 *448:A2 0.000103389
14 *112:18 *171:12 0.00265943
15 *149:46 *171:12 0
16 *157:55 *448:A2 4.20771e-05
17 *157:55 *171:8 4.78524e-05
18 *158:22 *171:12 0.00149785
*RES
1 *378:X *171:8 40.3193 
2 *171:8 *171:12 32.463 
3 *171:12 *379:B1 20 
4 *171:8 *448:A2 41.1974 
*END

*D_NET *172 0.00334019
*CONN
*I *496:A I *D sg13g2_buf_16
*I *495:A I *D sg13g2_buf_16
*I *494:X O *D sg13g2_buf_16
*CAP
1 *496:A 0.000181253
2 *495:A 0.000116725
3 *494:X 0
4 *172:44 0.000972931
5 *172:31 0.000791678
6 *172:15 0.000697165
7 *172:6 0.00058044
8 *172:15 *173:24 0
9 *172:15 *189:18 0
10 *172:15 *199:12 0
11 *172:15 *199:14 0
12 *172:44 *179:8 0
13 *172:44 *191:37 0
14 *172:44 *209:24 0
15 *345:B1 *495:A 0
16 *345:B1 *172:15 0
17 *367:A2 *496:A 0
18 *432:A2 *496:A 0
19 *432:A2 *172:44 0
20 *31:8 *495:A 0
21 *31:8 *172:15 0
22 *35:12 *172:44 0
23 *40:12 *172:44 0
24 *145:8 *172:15 0
*RES
1 *494:X *172:6 40 
2 *172:6 *172:15 25.7989 
3 *172:15 *495:A 20.9682 
4 *494:X *172:31 40 
5 *172:31 *172:44 27.1482 
6 *172:44 *496:A 22.0188 
*END

*D_NET *173 0.00472228
*CONN
*I *485:CLK I *D sg13g2_dfrbpq_1
*I *487:CLK I *D sg13g2_dfrbpq_1
*I *488:CLK I *D sg13g2_dfrbpq_1
*I *489:CLK I *D sg13g2_dfrbpq_1
*I *486:CLK I *D sg13g2_dfrbpq_1
*I *495:X O *D sg13g2_buf_16
*CAP
1 *485:CLK 0.000389066
2 *487:CLK 0
3 *488:CLK 0.00020263
4 *489:CLK 0
5 *486:CLK 0.000203781
6 *495:X 0.000203781
7 *173:33 0.000384889
8 *173:31 0.000599475
9 *173:24 0.000777066
10 *173:18 0.000805217
11 *485:CLK *203:20 0.000112241
12 *486:CLK *211:14 0
13 *173:24 *190:10 0
14 *173:24 *196:35 0
15 *173:24 *199:28 0
16 *487:RESET_B *485:CLK 0
17 *487:RESET_B *486:CLK 0.000237791
18 *487:RESET_B *173:33 0
19 *488:RESET_B *488:CLK 0
20 *33:10 *173:24 0
21 *36:8 *173:24 0
22 *47:10 *485:CLK 0.000596712
23 *47:10 *173:24 0
24 *47:10 *173:33 0.000209637
25 *143:10 *173:24 0
26 *172:15 *173:24 0
*RES
1 *495:X *486:CLK 42.2145 
2 *495:X *173:18 20 
3 *173:18 *173:24 47.7662 
4 *173:24 *489:CLK 20 
5 *173:18 *173:31 0.3502 
6 *173:31 *173:33 1.8334 
7 *173:33 *488:CLK 22.266 
8 *173:33 *487:CLK 20 
9 *173:31 *485:CLK 23.9964 
*END

*D_NET *174 0.00872055
*CONN
*I *497:A I *D sg13g2_inv_1
*I *493:CLK I *D sg13g2_dfrbpq_1
*I *490:CLK I *D sg13g2_dfrbpq_1
*I *492:CLK I *D sg13g2_dfrbpq_1
*I *491:CLK I *D sg13g2_dfrbpq_1
*I *496:X O *D sg13g2_buf_16
*CAP
1 *497:A 0
2 *493:CLK 0
3 *490:CLK 0
4 *492:CLK 0.000242345
5 *491:CLK 3.02081e-05
6 *496:X 0.00156325
7 *174:61 0.00125387
8 *174:36 0.000307146
9 *174:23 0.00072569
10 *174:14 0.000592099
11 *174:12 0.000385691
12 *174:10 0.000309375
13 *492:CLK *182:16 0
14 *174:10 *182:16 0.000304663
15 *174:10 *184:20 0.000304663
16 *174:14 *358:B 0
17 *174:14 *192:77 0
18 *174:23 *182:16 0
19 *174:36 *350:B 0
20 *174:36 *192:77 0
21 *174:36 *212:8 0.000125175
22 *174:61 *523:A 0
23 *174:61 *528:A 4.77537e-05
24 *174:61 *536:A 0.000307095
25 *174:61 *184:12 0.000144872
26 *174:61 *184:20 0.000209676
27 *174:61 *192:57 0
28 *174:61 *192:71 0
29 sine_out[10] *174:61 0.000144942
30 sine_out[17] *174:61 0.000144767
31 sine_out[1] *174:36 0
32 sine_out[5] *174:61 8.02276e-05
33 *360:B *492:CLK 0
34 *453:B *174:14 0.000273189
35 *503:A *174:61 1.54008e-05
36 *26:10 *492:CLK 0
37 *27:12 *174:10 0
38 *35:12 *174:10 0
39 *37:8 *174:36 0.000657423
40 *113:16 *174:14 0
41 *113:16 *174:23 0
42 *113:16 *174:36 0.000551031
*RES
1 *496:X *174:10 43.3887 
2 *174:10 *174:12 20 
3 *174:12 *174:14 3.9964 
4 *174:14 *491:CLK 20.3502 
5 *174:14 *174:23 1.8334 
6 *174:23 *492:CLK 21.8084 
7 *174:23 *174:36 44.7998 
8 *174:36 *490:CLK 20 
9 *174:12 *493:CLK 20 
10 *496:X *174:61 32.257 
11 *174:61 *497:A 20 
*END

*D_NET *175 0.0118085
*CONN
*I *484:A I *D sg13g2_inv_1
*I *518:A I *D sg13g2_buf_1
*I *520:X O *D sg13g2_buf_1
*CAP
1 *484:A 0
2 *518:A 0
3 *520:X 0.000371661
4 *175:37 6.34193e-05
5 *175:31 0.00241207
6 *175:18 0.000976398
7 *175:10 0.00369671
8 *175:10 *200:38 4.71858e-05
9 *175:18 *333:A 0.000175698
10 *175:18 *204:84 0
11 *175:18 *206:16 0.000175618
12 *175:31 *186:25 0.000794846
13 *175:31 *203:8 0.00028473
14 *175:31 *203:33 0.00102196
15 *175:31 *207:106 0.000285539
16 *175:31 *209:24 0
17 *337:A2 *175:18 0
18 *340:B *175:18 4.79124e-05
19 *341:A2 *175:18 0
20 *388:B *175:31 0
21 *398:A *175:31 0
22 *475:B *175:18 8.02431e-05
23 *4:17 *175:18 0
24 *27:12 *175:31 0
25 *30:10 *175:18 0.000207708
26 *32:12 *175:18 0
27 *34:10 *175:18 0.000414724
28 *41:12 *175:10 4.72314e-05
29 *41:29 *175:10 0
30 *41:29 *175:31 0
31 *50:16 *175:31 0
32 *56:30 *175:31 0
33 *138:16 *175:18 0
34 *139:8 *175:18 0
35 *159:22 *175:31 0
36 *161:8 *175:31 0.000704803
*RES
1 *520:X *175:10 43.1415 
2 *175:10 *175:18 49.5687 
3 *175:18 *518:A 40 
4 *175:10 *175:31 43.69 
5 *175:31 *175:37 40.5356 
6 *175:37 *484:A 20 
*END

*D_NET *176 0.00499099
*CONN
*I *521:A I *D sg13g2_buf_1
*I *471:Y O *D sg13g2_nand2_1
*CAP
1 *521:A 0
2 *471:Y 0.000183461
3 *176:14 0.00103646
4 *176:10 0.00121992
5 *176:10 *471:A 0.000175513
6 *176:14 *398:B_N 7.98757e-05
7 *176:14 *191:37 0
8 *176:14 *191:43 0
9 *176:14 *196:35 0
10 sine_out[1] *176:10 0.000392401
11 *351:B *176:14 0.000564208
12 *471:B *176:10 0.000175513
13 *13:10 *176:14 0
14 *35:69 *176:14 0
15 *37:8 *176:10 0.000391901
16 *40:12 *176:14 0.000434518
17 *70:10 *176:14 0.000337213
18 *159:16 *176:14 0
*RES
1 *471:Y *176:10 43.0179 
2 *176:10 *176:14 30.2691 
3 *176:14 *521:A 20 
*END

*D_NET *177 0.000706961
*CONN
*I *522:A I *D sg13g2_buf_1
*I *472:Y O *D sg13g2_o21ai_1
*CAP
1 *522:A 0
2 *472:Y 0.000257086
3 *177:10 0.000257086
4 *177:10 *472:A1 0
5 *177:10 *523:A 1.54556e-05
6 *177:10 *196:74 0
7 *503:A *177:10 0.000177334
*RES
1 *472:Y *177:10 42.4617 
2 *177:10 *522:A 40 
*END

*D_NET *178 0.000371006
*CONN
*I *523:A I *D sg13g2_buf_1
*I *474:Y O *D sg13g2_nand3_1
*CAP
1 *523:A 4.43045e-05
2 *474:Y 7.63689e-05
3 *178:8 0.000120673
4 *523:A *196:74 9.27302e-05
5 *178:8 *192:57 0
6 *39:20 *178:8 0
7 *70:29 *178:8 2.14736e-05
8 *174:61 *523:A 0
9 *177:10 *523:A 1.54556e-05
*RES
1 *474:Y *178:8 40.5974 
2 *178:8 *523:A 40.5356 
*END

*D_NET *179 0.00365382
*CONN
*I *524:A I *D sg13g2_buf_1
*I *432:Y O *D sg13g2_o21ai_1
*CAP
1 *524:A 0.000600736
2 *432:Y 0.000708358
3 *179:8 0.00130909
4 *524:A *180:18 0
5 *524:A *211:98 0.000181608
6 *179:8 *471:A 0
7 *179:8 *191:37 0.000531697
8 *179:8 *191:43 0.000274583
9 *179:8 *208:20 4.77425e-05
10 sine_out[2] *524:A 0
11 *491:D *179:8 0
12 *494:A *179:8 0
13 *3:22 *179:8 0
14 *5:8 *524:A 0
15 *19:14 *524:A 0
16 *142:8 *524:A 0
17 *172:44 *179:8 0
*RES
1 *432:Y *179:8 47.2409 
2 *179:8 *524:A 46.0358 
*END

*D_NET *180 0.00553359
*CONN
*I *525:A I *D sg13g2_buf_1
*I *450:Y O *D sg13g2_o21ai_1
*CAP
1 *525:A 0
2 *450:Y 0
3 *180:18 0.000586142
4 *180:10 0.0020125
5 *180:6 0.00142635
6 *180:10 *189:63 0
7 *180:10 *189:80 0
8 *490:RESET_B *180:18 0
9 *490:D *180:18 0
10 *524:A *180:18 0
11 *5:8 *180:18 0
12 *19:14 *180:18 0.0015086
13 *26:10 *180:18 0
14 *35:52 *180:10 0
15 *42:12 *180:10 0
16 *42:20 *180:18 0
17 *70:46 *180:10 0
*RES
1 *450:Y *180:6 40 
2 *180:6 *180:10 34.5951 
3 *180:10 *180:18 47.4634 
4 *180:18 *525:A 20 
*END

*D_NET *181 0.000339565
*CONN
*I *526:A I *D sg13g2_buf_1
*I *453:Y O *D sg13g2_nor2_1
*CAP
1 *526:A 0
2 *453:Y 0.000169783
3 *181:8 0.000169783
4 *181:8 *192:77 0
5 sine_out[4] *181:8 0
*RES
1 *453:Y *181:8 41.8334 
2 *181:8 *526:A 40 
*END

*D_NET *182 0.0101114
*CONN
*I *527:A I *D sg13g2_buf_1
*I *455:Y O *D sg13g2_nor3_1
*CAP
1 *527:A 0.000115711
2 *455:Y 0.001208
3 *182:20 0.000905233
4 *182:16 0.00199752
5 *182:16 *455:B 0
6 *182:16 *184:20 0.00011189
7 *182:16 *192:71 0.000664145
8 *182:16 *192:77 0.000338895
9 *182:16 *196:74 0
10 *182:20 *346:A 0
11 *182:20 *531:A 0.000606945
12 *182:20 *186:10 0.000960567
13 sine_out[1] *182:20 0
14 sine_out[6] *182:16 0
15 *348:A *527:A 0
16 *492:CLK *182:16 0
17 *16:8 *527:A 0
18 *19:8 *527:A 0
19 *19:14 *182:16 0.000144971
20 *19:14 *182:20 0.00268973
21 *35:14 *182:16 0
22 *39:14 *182:16 0
23 *141:18 *527:A 0
24 *151:12 *182:16 4.77425e-05
25 *151:25 *182:16 1.54008e-05
26 *174:10 *182:16 0.000304663
27 *174:23 *182:16 0
*RES
1 *455:Y *182:16 32.3909 
2 *182:16 *182:20 32.9574 
3 *182:20 *527:A 40.9682 
*END

*D_NET *183 0.000562854
*CONN
*I *528:A I *D sg13g2_buf_1
*I *457:Y O *D sg13g2_nor3_1
*CAP
1 *528:A 2.59558e-05
2 *457:Y 0.000144539
3 *183:8 0.000170494
4 *528:A *184:12 4.77537e-05
5 *183:8 *193:12 0
6 *183:8 *217:20 0.000126358
7 *174:61 *528:A 4.77537e-05
*RES
1 *457:Y *183:8 41.5862 
2 *183:8 *528:A 40.3193 
*END

*D_NET *184 0.00528011
*CONN
*I *529:A I *D sg13g2_buf_1
*I *459:Y O *D sg13g2_a21oi_1
*CAP
1 *529:A 0
2 *459:Y 0.00067279
3 *184:20 0.00113274
4 *184:12 0.00180553
5 *184:12 *536:A 0.000209725
6 *184:12 *193:10 2.20966e-05
7 *184:12 *194:25 0
8 sine_out[16] *184:20 4.78524e-05
9 sine_out[6] *184:20 0
10 *461:A2 *184:12 0
11 *503:A *184:12 0.000306701
12 *528:A *184:12 4.77537e-05
13 *39:14 *184:20 0.000263813
14 *174:10 *184:20 0.000304663
15 *174:61 *184:12 0.000144872
16 *174:61 *184:20 0.000209676
17 *182:16 *184:20 0.00011189
*RES
1 *459:Y *184:12 46.4272 
2 *184:12 *184:20 31.0622 
3 *184:20 *529:A 20 
*END

*D_NET *185 0.000756848
*CONN
*I *530:A I *D sg13g2_buf_1
*I *460:Y O *D sg13g2_a21oi_1
*CAP
1 *530:A 0.00029042
2 *460:Y 0.00029042
3 *530:A *458:B 0
4 *530:A *460:A1 0
5 *530:A *539:A 0
6 *530:A *188:14 0
7 *530:A *196:130 0
8 *460:B1 *530:A 4.7803e-05
9 *11:12 *530:A 4.78356e-05
10 *22:10 *530:A 8.03692e-05
*RES
1 *460:Y *530:A 43.6874 
*END

*D_NET *186 0.00870042
*CONN
*I *519:A I *D sg13g2_dlygate4sd3_1
*I *330:A I *D sg13g2_inv_1
*I *531:A I *D sg13g2_buf_1
*I *492:Q O *D sg13g2_dfrbpq_1
*CAP
1 *519:A 8.51913e-05
2 *330:A 0
3 *531:A 0.000269197
4 *492:Q 8.35019e-05
5 *186:31 9.07006e-05
6 *186:25 0.00135589
7 *186:10 0.00185261
8 *186:6 0.000486922
9 *186:25 *208:14 0
10 sine_out[1] *531:A 0.000603208
11 sine_out[1] *186:10 0.00140254
12 sine_out[2] *186:10 0
13 *473:B *186:31 0
14 *473:A_N *186:31 0
15 *490:RESET_B *531:A 0
16 *6:12 *519:A 0
17 *6:12 *186:6 0
18 *19:14 *519:A 0
19 *19:14 *186:6 0
20 *19:14 *186:10 0
21 *42:12 *186:25 0
22 *43:14 *186:25 0
23 *50:16 *186:25 0
24 *97:14 *186:31 0.0001083
25 *102:12 *186:25 0
26 *149:27 *186:25 0
27 *175:31 *186:25 0.000794846
28 *182:20 *531:A 0.000606945
29 *182:20 *186:10 0.000960567
*RES
1 *492:Q *186:6 20.7519 
2 *186:6 *186:10 26.5302 
3 *186:10 *531:A 43.8219 
4 *186:10 *186:25 33.5136 
5 *186:25 *186:31 40.9399 
6 *186:31 *330:A 20 
7 *186:6 *519:A 20.9682 
*END

*D_NET *187 0.000521635
*CONN
*I *532:A I *D sg13g2_buf_1
*I *461:Y O *D sg13g2_a21oi_1
*CAP
1 *532:A 0.000155928
2 *461:Y 0.000155928
3 *532:A *460:A1 0.000209779
4 *532:A *538:A 0
*RES
1 *461:Y *532:A 41.751 
*END

*D_NET *188 0.00143948
*CONN
*I *533:A I *D sg13g2_buf_1
*I *462:Y O *D sg13g2_a21oi_1
*CAP
1 *533:A 5.0338e-05
2 *462:Y 0.000357192
3 *188:14 0.00040753
4 *533:A *214:10 0
5 *533:A *216:10 0
6 *188:14 *458:B 0
7 *188:14 *539:A 4.77425e-05
8 *188:14 *193:44 0
9 *188:14 *193:50 0
10 *188:14 *214:10 0.000235556
11 *188:14 *216:10 0.000341119
12 *460:B1 *188:14 0
13 *530:A *188:14 0
14 *22:10 *533:A 0
15 *124:10 *188:14 0
*RES
1 *462:Y *188:14 44.6762 
2 *188:14 *533:A 40.5356 
*END

*D_NET *189 0.0171992
*CONN
*I *455:B I *D sg13g2_nor3_1
*I *445:C I *D sg13g2_nand3b_1
*I *425:A_N I *D sg13g2_nand2b_1
*I *392:C1 I *D sg13g2_a221oi_1
*I *443:A_N I *D sg13g2_nand2b_1
*I *358:B I *D sg13g2_nor2_1
*I *404:B1 I *D sg13g2_a21oi_1
*I *403:A I *D sg13g2_nor2_1
*I *498:X O *D sg13g2_buf_1
*CAP
1 *455:B 0.000233636
2 *445:C 6.45208e-05
3 *425:A_N 0
4 *392:C1 0
5 *443:A_N 0
6 *358:B 0.000465324
7 *404:B1 0
8 *403:A 0.000127147
9 *498:X 6.7642e-05
10 *189:92 0.000198488
11 *189:86 0.000683896
12 *189:80 0.00160372
13 *189:69 8.73151e-05
14 *189:63 0.0015729
15 *189:57 0.000724058
16 *189:38 0.00104443
17 *189:18 0.000607704
18 *189:8 0.00106867
19 *358:B *358:A 0
20 *445:C *203:83 1.54008e-05
21 *455:B *192:71 0.000112121
22 *189:18 *200:92 0.000599576
23 *189:18 *207:91 0
24 *189:18 *208:10 0.000599576
25 *189:18 *211:82 0
26 *189:38 *358:A 0.000965673
27 *189:38 *191:22 0
28 *189:38 *200:92 0.000529244
29 *189:38 *208:10 0.000603405
30 *189:69 *217:20 0
31 *189:80 *458:A 0
32 *189:80 *195:95 0
33 *189:80 *198:50 0
34 *189:86 *387:B1 0
35 *189:86 *195:34 0
36 *189:86 *195:95 0
37 *189:86 *202:59 0.000712757
38 *189:86 *202:72 0.000607109
39 *189:92 *202:33 7.45103e-05
40 *189:92 *202:59 0.000157571
41 *355:A *189:38 0.000179394
42 *388:A *189:18 4.77425e-05
43 *388:B *189:18 0
44 *411:C *189:8 0.000111
45 *425:B *189:86 8.00842e-05
46 *444:B1 *189:69 0
47 *445:A_N *445:C 1.54008e-05
48 *450:B1 *189:69 1.54556e-05
49 *453:B *358:B 0
50 *515:A *189:18 0.000433812
51 *13:18 *455:B 0.000444558
52 *13:18 *189:38 0
53 *13:18 *189:63 7.30101e-05
54 *27:12 *403:A 0
55 *27:12 *189:18 0
56 *27:12 *189:38 0
57 *35:52 *189:80 0
58 *41:63 *189:18 6.45462e-05
59 *42:12 *189:63 0
60 *70:46 *189:80 0
61 *72:35 *189:63 0
62 *72:35 *189:80 0
63 *79:49 *189:80 0.000444961
64 *101:14 *189:8 0.000111
65 *113:16 *189:69 0
66 *114:14 *189:80 0
67 *115:10 *445:C 0
68 *130:30 *189:92 0
69 *151:25 *189:80 0
70 *152:55 *189:86 0.000765789
71 *152:55 *189:92 0
72 *153:6 *358:B 0.000627325
73 *153:6 *189:57 6.34198e-05
74 *157:37 *189:92 0
75 *157:55 *189:69 1.54556e-05
76 *170:10 *189:92 0.000179888
77 *172:15 *189:18 0
78 *174:14 *358:B 0
79 *180:10 *189:63 0
80 *180:10 *189:80 0
81 *182:16 *455:B 0
*RES
1 *498:X *189:8 40.7519 
2 *189:8 *189:18 46.5817 
3 *189:18 *403:A 41.339 
4 *189:18 *404:B1 40 
5 *189:8 *189:38 27.519 
6 *189:38 *358:B 25.0341 
7 *189:38 *189:57 20.5356 
8 *189:57 *189:63 24.1303 
9 *189:63 *189:69 40.9682 
10 *189:69 *443:A_N 20 
11 *189:63 *189:80 29.261 
12 *189:80 *189:86 27.0658 
13 *189:86 *189:92 42.0806 
14 *189:92 *392:C1 20 
15 *189:86 *425:A_N 20 
16 *189:80 *445:C 40.5356 
17 *189:57 *455:B 42.8325 
*END

*D_NET *190 0.00809671
*CONN
*I *342:A I *D sg13g2_and2_1
*I *343:A I *D sg13g2_xor2_1
*I *332:A I *D sg13g2_and2_1
*I *333:A I *D sg13g2_nand2_1
*I *334:A I *D sg13g2_xnor2_1
*I *336:A I *D sg13g2_xor2_1
*I *339:A I *D sg13g2_xnor2_1
*I *338:A I *D sg13g2_nand2_1
*I *499:X O *D sg13g2_buf_1
*CAP
1 *342:A 0
2 *343:A 0
3 *332:A 0.000203384
4 *333:A 0.000307054
5 *334:A 6.90132e-05
6 *336:A 0
7 *339:A 0
8 *338:A 0.000267605
9 *499:X 0.000414571
10 *190:105 0.000241857
11 *190:92 0.000468359
12 *190:36 0.000511171
13 *190:26 0.000553185
14 *190:16 0.000560542
15 *190:12 0.000609517
16 *190:10 0.000773969
17 *190:8 0.00109111
18 *332:A *211:14 0.000307084
19 *334:A *204:84 0
20 *338:A *338:B 0
21 *190:10 *199:28 0
22 *190:12 *332:B 0
23 *190:12 *199:28 0
24 *190:12 *203:20 0
25 *190:16 *332:B 0
26 *190:26 *336:B 0
27 *190:26 *200:8 0.000162057
28 *190:36 *200:8 8.03692e-05
29 *190:92 *199:28 0
30 *337:A2 *338:A 8.03692e-05
31 *337:A2 *190:36 0.000209697
32 *486:RESET_B *333:A 0
33 *4:17 *332:A 0
34 *4:17 *333:A 0
35 *4:17 *190:16 0
36 *4:17 *190:26 0
37 *27:12 *190:8 0
38 *27:12 *190:105 0
39 *29:10 *190:8 0
40 *29:10 *190:92 0
41 *29:10 *190:105 0.00060727
42 *31:8 *190:8 0
43 *31:8 *190:92 0
44 *47:10 *190:8 0
45 *134:6 *190:26 0
46 *134:18 *338:A 0.000209796
47 *134:18 *190:26 0.000112826
48 *134:18 *190:36 8.02105e-05
49 *173:24 *190:10 0
50 *175:18 *333:A 0.000175698
*RES
1 *499:X *190:8 43.9964 
2 *190:8 *190:10 4.0582 
3 *190:10 *190:12 1.339 
4 *190:12 *190:16 21.8334 
5 *190:16 *190:26 43.5535 
6 *190:26 *190:36 42.781 
7 *190:36 *338:A 22.7192 
8 *190:36 *339:A 20 
9 *190:26 *336:A 20 
10 *190:16 *334:A 20.7519 
11 *190:12 *333:A 42.9355 
12 *190:10 *332:A 42.0497 
13 *190:8 *190:92 22.0909 
14 *190:92 *343:A 20 
15 *190:92 *190:105 43.3578 
16 *190:105 *342:A 20 
*END

*D_NET *191 0.00967994
*CONN
*I *359:A I *D sg13g2_nand4_1
*I *350:A I *D sg13g2_xnor2_1
*I *347:A I *D sg13g2_xnor2_1
*I *346:A I *D sg13g2_nand2_1
*I *367:B1 I *D sg13g2_a21o_1
*I *500:X O *D sg13g2_buf_1
*CAP
1 *359:A 0
2 *350:A 0
3 *347:A 0
4 *346:A 6.21585e-05
5 *367:B1 3.40398e-05
6 *500:X 0.00030792
7 *191:43 0.00049302
8 *191:37 0.00115536
9 *191:22 0.0010776
10 *191:12 0.000405572
11 *191:8 0.000394427
12 *346:A *196:14 0.000234311
13 *346:A *196:35 5.31192e-05
14 *191:8 *192:57 0
15 *191:8 *196:47 0.000544599
16 *191:8 *196:74 0.000209228
17 *191:37 *358:A 0.000337618
18 *191:37 *398:B_N 4.7534e-05
19 *191:43 *350:B 0
20 *191:43 *196:35 0.000288088
21 sine_out[17] *191:8 0.00012816
22 *355:A *191:22 0.000124859
23 *432:A2 *191:37 0
24 *13:10 *191:22 0
25 *13:18 *191:22 0.00017851
26 *37:8 *346:A 0.000234726
27 *37:8 *191:43 0.000903706
28 *40:12 *191:37 0.000434408
29 *70:37 *191:8 0
30 *129:12 *191:12 9.7025e-05
31 *129:22 *191:12 4.77425e-05
32 *129:22 *191:22 4.72458e-05
33 *151:12 *191:8 0.000651613
34 *154:10 *191:22 4.72458e-05
35 *159:16 *191:37 4.77425e-05
36 *159:22 *191:37 0.000286081
37 *172:44 *191:37 0
38 *176:14 *191:37 0
39 *176:14 *191:43 0
40 *179:8 *191:37 0.000531697
41 *179:8 *191:43 0.000274583
42 *182:20 *346:A 0
43 *189:38 *191:22 0
*RES
1 *500:X *191:8 44.7998 
2 *191:8 *191:12 20.9682 
3 *191:12 *191:22 42.8737 
4 *191:22 *367:B1 20.3193 
5 *191:22 *191:37 47.9619 
6 *191:37 *191:43 26.1388 
7 *191:43 *346:A 41.339 
8 *191:43 *347:A 40 
9 *191:37 *350:A 20 
10 *191:12 *359:A 20 
*END

*D_NET *192 0.0160703
*CONN
*I *327:A I *D sg13g2_inv_1
*I *455:A I *D sg13g2_nor3_1
*I *453:A I *D sg13g2_nor2_1
*I *471:A I *D sg13g2_nand2_1
*I *350:B I *D sg13g2_xnor2_1
*I *470:A I *D sg13g2_nand2_1
*I *411:A I *D sg13g2_nand3_1
*I *431:A I *D sg13g2_or4_1
*I *501:X O *D sg13g2_buf_1
*CAP
1 *327:A 0.000140431
2 *455:A 2.84341e-05
3 *453:A 0
4 *471:A 0.000412067
5 *350:B 0.000154828
6 *470:A 0.000149165
7 *411:A 0.000284197
8 *431:A 0.000701034
9 *501:X 0
10 *192:77 0.00129941
11 *192:71 0.00139595
12 *192:57 0.00103874
13 *192:42 0.00089367
14 *192:38 0.000602517
15 *192:8 0.00133183
16 *192:4 0.000411054
17 *411:A *207:91 1.54008e-05
18 *431:A *420:A1 0.000337127
19 *431:A *512:A 0
20 *431:A *516:A 0.000286687
21 *431:A *204:14 0.000285951
22 *431:A *211:62 0.00118578
23 *192:8 *516:A 0.000547115
24 *192:8 *196:47 0.000708224
25 *192:8 *211:74 0
26 *192:42 *196:47 0
27 *192:57 *196:47 0
28 *192:57 *196:74 0
29 *192:77 *212:8 0
30 sine_out[17] *192:57 7.96143e-05
31 *389:B1 *431:A 0
32 *412:A2 *431:A 0.000181279
33 *412:B1 *411:A 0.000143341
34 *431:B *431:A 8.00842e-05
35 *431:D *431:A 0
36 *453:B *192:71 0
37 *455:B *192:71 0.000112121
38 *470:B *470:A 0
39 *471:B *471:A 0
40 *474:C *470:A 1.54008e-05
41 *501:A *327:A 8.01118e-05
42 *3:22 *471:A 0
43 *27:12 *192:71 0
44 *35:14 *192:71 0.000562675
45 *35:29 *470:A 0
46 *37:8 *350:B 0
47 *40:12 *350:B 0
48 *40:12 *192:77 0
49 *50:10 *192:42 0.00012757
50 *70:29 *192:8 0
51 *70:29 *192:42 0.00096759
52 *70:29 *192:57 0.000284575
53 *84:10 *431:A 0
54 *91:10 *431:A 0
55 *113:16 *192:77 0
56 *159:16 *327:A 0
57 *159:16 *192:38 4.77425e-05
58 *174:14 *192:77 0
59 *174:36 *350:B 0
60 *174:36 *192:77 0
61 *174:61 *192:57 0
62 *174:61 *192:71 0
63 *176:10 *471:A 0.000175513
64 *178:8 *192:57 0
65 *179:8 *471:A 0
66 *181:8 *192:77 0
67 *182:16 *192:71 0.000664145
68 *182:16 *192:77 0.000338895
69 *191:8 *192:57 0
70 *191:43 *350:B 0
*RES
1 *501:X *192:4 20 
2 *192:4 *192:8 24.7998 
3 *192:8 *431:A 49.3421 
4 *192:8 *411:A 42.9355 
5 *192:4 *192:38 0.5356 
6 *192:38 *192:42 24.5526 
7 *192:42 *470:A 41.1845 
8 *192:42 *192:57 23.2651 
9 *192:57 *192:71 47.3748 
10 *192:71 *192:77 27.5602 
11 *192:77 *350:B 41.339 
12 *192:77 *471:A 44.0994 
13 *192:71 *453:A 20 
14 *192:57 *455:A 20.3502 
15 *192:38 *327:A 21.1845 
*END

*D_NET *193 0.00622655
*CONN
*I *472:B1 I *D sg13g2_o21ai_1
*I *457:A I *D sg13g2_nor3_1
*I *468:B1 I *D sg13g2_a21oi_1
*I *458:B I *D sg13g2_or2_1
*I *462:B1 I *D sg13g2_a21oi_1
*I *466:A I *D sg13g2_nor2_1
*I *447:A I *D sg13g2_nand3_1
*I *450:A1 I *D sg13g2_o21ai_1
*I *502:X O *D sg13g2_buf_1
*CAP
1 *472:B1 0
2 *457:A 3.24509e-05
3 *468:B1 0.000101935
4 *458:B 0.000127457
5 *462:B1 0
6 *466:A 0
7 *447:A 0
8 *450:A1 0
9 *502:X 0.000126951
10 *193:50 0.000557954
11 *193:44 0.000905217
12 *193:35 0.000290269
13 *193:31 0.000541401
14 *193:27 0.000674895
15 *193:12 0.000418983
16 *193:10 0.000272492
17 *458:B *458:A 1.54556e-05
18 *458:B *196:130 0
19 *468:B1 *198:70 0.000210322
20 *193:31 *194:59 0
21 *193:35 *198:70 0.000234172
22 *193:44 *458:A 0
23 *193:44 *194:59 0.000207948
24 *193:44 *196:130 1.54008e-05
25 *193:50 *458:A 0
26 *193:50 *196:130 0.000128248
27 *193:50 *214:10 0
28 *193:50 *216:10 0
29 *448:B1 *193:31 0
30 *450:B1 *457:A 0
31 *450:B1 *193:27 0
32 *457:C *193:31 0
33 *462:A2 *193:44 0
34 *467:B_N *193:27 0.000241979
35 *467:B_N *193:31 0.000258287
36 *468:A2 *193:31 0.000434505
37 *530:A *458:B 0
38 *35:52 *193:27 7.33225e-05
39 *39:20 *193:10 0
40 *39:20 *193:12 0
41 *79:10 *193:50 0
42 *79:34 *193:50 0
43 *79:49 *193:35 0.000125175
44 *80:8 *468:B1 0
45 *112:18 *193:27 0.000209637
46 *124:10 *458:B 0
47 *183:8 *193:12 0
48 *184:12 *193:10 2.20966e-05
49 *188:14 *458:B 0
50 *188:14 *193:44 0
51 *188:14 *193:50 0
*RES
1 *502:X *193:10 41.3802 
2 *193:10 *193:12 1.0918 
3 *193:12 *450:A1 40 
4 *193:12 *193:27 22.9664 
5 *193:27 *193:31 23.9964 
6 *193:31 *193:35 21.0918 
7 *193:35 *447:A 20 
8 *193:35 *193:44 2.1836 
9 *193:44 *193:50 45.2942 
10 *193:50 *466:A 20 
11 *193:44 *462:B1 20 
12 *193:44 *458:B 21.4832 
13 *193:31 *468:B1 41.0918 
14 *193:27 *457:A 20.3502 
15 *193:10 *472:B1 40 
*END

*D_NET *194 0.0102034
*CONN
*I *469:A I *D sg13g2_nor2_1
*I *454:B I *D sg13g2_nor2_1
*I *395:A I *D sg13g2_nor4_1
*I *502:A I *D sg13g2_buf_1
*I *503:X O *D sg13g2_buf_1
*CAP
1 *469:A 5.86696e-05
2 *454:B 0
3 *395:A 0.000183302
4 *502:A 0
5 *503:X 2.77263e-05
6 *194:59 0.000419105
7 *194:46 0.000661009
8 *194:31 0.00217815
9 *194:25 0.0024616
10 *194:14 0.000261366
11 *194:6 0.00105642
12 *194:25 *540:A 0.000339508
13 *194:25 *196:107 0
14 *194:25 *198:70 0
15 *194:25 *215:8 0
16 *194:31 *195:26 0.000181192
17 *194:31 *202:96 0
18 *194:31 *202:111 0
19 *194:46 *199:69 0
20 *194:46 *202:14 0.000234274
21 *194:46 *202:96 0
22 *194:46 *210:81 0
23 *194:59 *458:A 0
24 *379:A2 *194:46 0
25 *395:B *395:A 1.54008e-05
26 *395:C *395:A 0
27 *395:C *194:31 0
28 *409:A1 *194:31 0
29 *423:B1 *194:31 0.000340482
30 *440:A2 *194:31 0
31 *440:A2 *194:46 0
32 *440:B1 *194:46 0
33 *448:B1 *194:59 7.92265e-05
34 *457:C *194:25 0
35 *462:A2 *469:A 0
36 *462:A2 *194:59 0.000143171
37 *469:B *469:A 0
38 *472:A2 *194:14 0
39 *503:A *194:14 0.000209637
40 *503:A *194:25 8.01064e-05
41 *6:8 *194:25 0
42 *41:88 *194:31 0
43 *97:22 *194:31 0
44 *123:8 *194:25 0
45 *123:8 *194:31 0
46 *130:30 *194:31 0
47 *130:30 *194:46 0
48 *152:25 *194:31 0.00106509
49 *184:12 *194:25 0
50 *193:31 *194:59 0
51 *193:44 *194:59 0.000207948
*RES
1 *503:X *194:6 20.3502 
2 *194:6 *194:14 42.4926 
3 *194:14 *502:A 20 
4 *194:6 *194:25 26.6332 
5 *194:25 *194:31 33.5857 
6 *194:31 *395:A 21.4008 
7 *194:31 *194:46 46.2624 
8 *194:46 *454:B 20 
9 *194:25 *194:59 43.3269 
10 *194:59 *469:A 40.5356 
*END

*D_NET *195 0.0130088
*CONN
*I *458:A I *D sg13g2_or2_1
*I *446:B1 I *D sg13g2_o21ai_1
*I *439:B I *D sg13g2_nand2b_1
*I *393:A_N I *D sg13g2_nand2b_1
*I *442:A1 I *D sg13g2_o21ai_1
*I *369:B I *D sg13g2_nand2b_1
*I *364:B I *D sg13g2_nand2_1
*I *410:B I *D sg13g2_nand4_1
*I *504:X O *D sg13g2_buf_1
*CAP
1 *458:A 0.000410733
2 *446:B1 0.000106349
3 *439:B 6.28755e-05
4 *393:A_N 1.59588e-05
5 *442:A1 0.00016528
6 *369:B 0.000377249
7 *364:B 0.000117521
8 *410:B 0.000217517
9 *504:X 0.00055701
10 *195:95 0.00105673
11 *195:59 0.000588899
12 *195:57 0.00061412
13 *195:49 0.00155301
14 *195:34 0.00127645
15 *195:32 0.00100439
16 *195:26 0.000583652
17 *364:B *364:A 0
18 *369:B *199:28 1.54008e-05
19 *369:B *199:37 0
20 *369:B *199:45 0
21 *369:B *199:54 0
22 *393:A_N *199:54 1.54008e-05
23 *393:A_N *199:69 3.23417e-05
24 *410:B *198:27 0.000145009
25 *442:A1 *375:B 0
26 *442:A1 *199:69 0
27 *458:A *196:130 8.03692e-05
28 *195:26 *196:107 0
29 *195:32 *196:107 0.000110936
30 *195:49 *205:76 0
31 *195:49 *207:142 0
32 *195:57 *199:69 0.000468338
33 *195:57 *210:70 0.000332816
34 *195:57 *210:81 0
35 *195:59 *199:54 0
36 *365:A *195:32 0
37 *365:B *195:32 0.000143818
38 *410:D *410:B 0
39 *421:B *195:57 4.77425e-05
40 *438:C *439:B 0
41 *438:C *195:57 0
42 *440:B1 *195:57 0
43 *441:A2 *195:57 0
44 *442:B1 *195:57 0
45 *442:B1 *195:59 0
46 *442:A2 *442:A1 8.02105e-05
47 *442:A2 *195:57 0
48 *446:A2 *446:B1 4.77425e-05
49 *458:B *458:A 1.54556e-05
50 *463:B1 *439:B 0.00011211
51 *463:B1 *195:57 0.000111032
52 *463:A1 *195:49 0.000234224
53 *41:88 *195:26 0
54 *53:22 *369:B 0
55 *53:22 *442:A1 0
56 *63:10 *195:49 0.000335719
57 *79:10 *195:34 0
58 *79:10 *195:95 0
59 *79:34 *446:B1 0.000111476
60 *79:34 *195:95 0
61 *79:49 *458:A 0
62 *80:8 *458:A 0
63 *92:22 *195:57 4.77425e-05
64 *95:8 *195:49 0.000654838
65 *110:8 *195:49 0
66 *112:10 *442:A1 0
67 *112:10 *195:57 0
68 *116:10 *446:B1 1.54008e-05
69 *152:8 *195:32 0
70 *152:55 *195:34 0.000340374
71 *152:55 *195:49 0
72 *157:45 *195:26 0.000176954
73 *158:8 *364:B 0.000111588
74 *159:16 *410:B 0
75 *159:16 *195:26 0
76 *168:8 *442:A1 0
77 *168:21 *195:57 0.000332816
78 *189:80 *458:A 0
79 *189:80 *195:95 0
80 *189:86 *195:34 0
81 *189:86 *195:95 0
82 *193:44 *458:A 0
83 *193:50 *458:A 0
84 *194:31 *195:26 0.000181192
85 *194:59 *458:A 0
*RES
1 *504:X *410:B 42.2866 
2 *504:X *195:26 43.1106 
3 *195:26 *195:32 42.266 
4 *195:32 *195:34 2.3278 
5 *195:34 *364:B 40.9682 
6 *195:34 *195:49 29.0743 
7 *195:49 *195:57 46.4478 
8 *195:57 *195:59 0.5974 
9 *195:59 *369:B 23.7031 
10 *195:59 *442:A1 21.6171 
11 *195:57 *393:A_N 20.3193 
12 *195:49 *439:B 20.7519 
13 *195:32 *195:95 4.0582 
14 *195:95 *446:B1 40.9682 
15 *195:95 *458:A 43.5432 
*END

*D_NET *196 0.0180071
*CONN
*I *346:B I *D sg13g2_nand2_1
*I *462:A1 I *D sg13g2_a21oi_1
*I *468:A1 I *D sg13g2_a21oi_1
*I *504:A I *D sg13g2_buf_1
*I *472:A1 I *D sg13g2_o21ai_1
*I *474:A I *D sg13g2_nand3_1
*I *356:B I *D sg13g2_or2_1
*I *347:B I *D sg13g2_xnor2_1
*I *505:X O *D sg13g2_buf_1
*CAP
1 *346:B 0
2 *462:A1 0
3 *468:A1 0
4 *504:A 0
5 *472:A1 0.000163629
6 *474:A 0
7 *356:B 2.84713e-05
8 *347:B 3.04198e-05
9 *505:X 0.000374263
10 *196:130 0.000399974
11 *196:111 0.000461333
12 *196:107 0.00107926
13 *196:96 0.00158436
14 *196:74 0.00049181
15 *196:47 0.00105288
16 *196:39 0.00143712
17 *196:35 0.00111471
18 *196:14 0.0011129
19 *196:8 0.000516476
20 *472:A1 *217:20 0.000274491
21 *196:35 *207:91 0
22 *196:35 *207:106 0
23 *196:35 *211:98 0
24 *196:39 *205:27 0
25 *196:39 *211:74 0
26 *196:96 *205:27 0
27 *196:96 *211:131 0.000287867
28 *196:107 *198:70 0
29 *196:130 *216:10 0
30 sine_out[17] *196:74 0
31 *346:A *196:14 0.000234311
32 *346:A *196:35 5.31192e-05
33 *349:A1 *347:B 4.77425e-05
34 *351:B *196:35 0
35 *368:B *196:35 0.000240091
36 *409:B1 *196:107 0
37 *411:C *196:35 4.7534e-05
38 *453:B *356:B 1.54008e-05
39 *458:B *196:130 0
40 *458:A *196:130 8.03692e-05
41 *460:B1 *196:130 0
42 *461:A2 *196:111 0.000112426
43 *461:A2 *196:130 0.000112545
44 *462:A2 *196:130 1.54008e-05
45 *468:A2 *196:111 0.000112426
46 *469:B *196:107 0.000182023
47 *472:A2 *472:A1 1.54008e-05
48 *489:RESET_B *196:8 0
49 *503:A *472:A1 0
50 *505:A *196:8 0
51 *523:A *196:74 9.27302e-05
52 *530:A *196:130 0
53 *35:6 *196:35 0
54 *35:29 *356:B 4.77425e-05
55 *35:69 *196:35 0
56 *41:69 *196:39 0.000178556
57 *41:69 *196:96 0.000803287
58 *41:73 *196:107 0
59 *50:10 *196:47 0.000128245
60 *80:8 *196:130 0
61 *81:6 *196:107 0
62 *99:14 *196:96 0.000246718
63 *101:14 *196:35 7.96847e-05
64 *112:18 *196:96 0.000391004
65 *116:10 *196:107 0.000128247
66 *124:10 *196:130 4.78356e-05
67 *141:10 *196:8 0
68 *141:18 *196:8 0
69 *143:10 *196:8 0.000307019
70 *148:8 *196:35 0
71 *151:12 *196:47 0.000816631
72 *151:25 *196:74 0
73 *152:25 *196:107 0.000874321
74 *157:37 *196:107 0.000181608
75 *159:16 *196:107 0
76 *173:24 *196:35 0
77 *176:14 *196:35 0
78 *177:10 *472:A1 0
79 *177:10 *196:74 0
80 *182:16 *196:74 0
81 *191:8 *196:47 0.000544599
82 *191:8 *196:74 0.000209228
83 *191:43 *196:35 0.000288088
84 *192:8 *196:47 0.000708224
85 *192:42 *196:47 0
86 *192:57 *196:47 0
87 *192:57 *196:74 0
88 *193:44 *196:130 1.54008e-05
89 *193:50 *196:130 0.000128248
90 *194:25 *196:107 0
91 *195:26 *196:107 0
92 *195:32 *196:107 0.000110936
*RES
1 *505:X *196:8 23.6977 
2 *196:8 *196:14 21.9055 
3 *196:14 *347:B 40.3193 
4 *196:14 *196:35 49.7444 
5 *196:35 *196:39 22.0497 
6 *196:39 *196:47 28.6829 
7 *196:47 *356:B 40.3193 
8 *196:47 *196:74 23.6101 
9 *196:74 *474:A 20 
10 *196:74 *472:A1 21.8334 
11 *196:39 *196:96 47.4469 
12 *196:96 *504:A 20 
13 *196:96 *196:107 30.0596 
14 *196:107 *196:111 20.7519 
15 *196:111 *468:A1 20 
16 *196:111 *196:130 44.1092 
17 *196:130 *462:A1 20 
18 *196:8 *346:B 20 
*END

*D_NET *197 0.00269826
*CONN
*I *534:A I *D sg13g2_buf_1
*I *330:Y O *D sg13g2_inv_1
*CAP
1 *534:A 5.91949e-05
2 *330:Y 0.000664201
3 *197:10 0.000723396
4 *197:10 *406:B1 0
5 *197:10 *198:27 0
6 *378:B *197:10 0.000208878
7 *445:A_N *197:10 0.000335496
8 *457:C *534:A 0.000112667
9 *467:A *197:10 0
10 *468:A2 *534:A 0.000112667
11 *472:A2 *197:10 7.51285e-05
12 *123:8 *197:10 0
13 *127:10 *197:10 0.000232421
14 *157:45 *197:10 0.000126354
15 *157:55 *197:10 0
16 *171:8 *197:10 4.78524e-05
*RES
1 *330:Y *197:10 46.7259 
2 *197:10 *534:A 40.7519 
*END

*D_NET *198 0.0107221
*CONN
*I *446:A1 I *D sg13g2_o21ai_1
*I *459:A1 I *D sg13g2_a21oi_1
*I *460:A1 I *D sg13g2_a21oi_1
*I *461:A1 I *D sg13g2_a21oi_1
*I *357:B I *D sg13g2_nor2_1
*I *364:A I *D sg13g2_nand2_1
*I *448:A1 I *D sg13g2_a21oi_1
*I *410:A I *D sg13g2_nand4_1
*I *506:X O *D sg13g2_buf_1
*CAP
1 *446:A1 2.48096e-05
2 *459:A1 6.25107e-05
3 *460:A1 0.00030453
4 *461:A1 0
5 *357:B 0
6 *364:A 0.000323108
7 *448:A1 0
8 *410:A 0
9 *506:X 0.000127156
10 *198:74 0.000504561
11 *198:70 0.000622247
12 *198:50 0.000637209
13 *198:44 0.000673805
14 *198:42 0.000501358
15 *198:27 0.0011644
16 *198:8 0.000815003
17 *364:A *202:59 0.000181192
18 *364:A *202:72 0.000106151
19 *459:A1 *538:A 4.78359e-05
20 *459:A1 *215:8 0.000106807
21 *460:A1 *538:A 0
22 *198:8 *209:45 0
23 *198:27 *211:131 0
24 *198:42 *203:83 0
25 *198:50 *202:72 0.000500215
26 *198:70 *215:8 7.4563e-05
27 *198:74 *538:A 0
28 sine_out[13] *460:A1 4.79124e-05
29 *364:B *364:A 0
30 *409:B1 *364:A 0
31 *410:B *198:27 0.000145009
32 *444:A1 *198:27 0
33 *446:A2 *446:A1 1.54008e-05
34 *448:A2 *198:27 9.6255e-06
35 *448:A2 *198:42 3.24516e-05
36 *456:B *198:42 4.77425e-05
37 *459:A2 *459:A1 1.54556e-05
38 *459:A2 *198:74 8.03089e-05
39 *460:A2 *460:A1 0.000290094
40 *460:B1 *460:A1 0
41 *461:A2 *198:74 0.000177295
42 *465:A2 *364:A 0
43 *468:B1 *198:70 0.000210322
44 *469:B *446:A1 3.23417e-05
45 *469:B *198:42 4.77425e-05
46 *469:B *198:50 0.000431353
47 *473:B *198:27 0.000246222
48 *473:B *198:42 0.000208878
49 *530:A *460:A1 0
50 *532:A *460:A1 0.000209779
51 *43:8 *198:27 0
52 *80:8 *459:A1 0
53 *80:8 *198:70 0
54 *82:12 *198:8 0.000144729
55 *82:12 *198:27 1.54008e-05
56 *97:14 *198:27 0
57 *115:10 *198:50 0.000128247
58 *115:10 *198:70 0.000340704
59 *116:10 *198:70 0.00012816
60 *124:10 *460:A1 0
61 *152:25 *198:42 0.000176333
62 *157:37 *364:A 0
63 *157:37 *198:50 0
64 *157:55 *198:27 0.000112426
65 *157:55 *198:42 4.77425e-05
66 *158:8 *364:A 0.000240498
67 *159:8 *198:50 0.000128247
68 *159:16 *198:27 0
69 *189:80 *198:50 0
70 *193:35 *198:70 0.000234172
71 *194:25 *198:70 0
72 *196:107 *198:70 0
73 *197:10 *198:27 0
*RES
1 *506:X *198:8 21.3184 
2 *198:8 *410:A 20 
3 *198:8 *198:27 46.5714 
4 *198:27 *448:A1 20 
5 *198:27 *198:42 4.9337 
6 *198:42 *198:44 20 
7 *198:44 *198:50 4.4805 
8 *198:50 *364:A 43.1724 
9 *198:50 *357:B 40 
10 *198:44 *198:70 4.3054 
11 *198:70 *198:74 22.0497 
12 *198:74 *461:A1 20 
13 *198:74 *460:A1 23.8316 
14 *198:70 *459:A1 40.9167 
15 *198:42 *446:A1 20.3193 
*END

*D_NET *199 0.0121134
*CONN
*I *342:B I *D sg13g2_and2_1
*I *343:B I *D sg13g2_xor2_1
*I *454:A I *D sg13g2_nor2_1
*I *437:B1 I *D sg13g2_o21ai_1
*I *438:A I *D sg13g2_nor4_1
*I *393:B I *D sg13g2_nand2b_1
*I *433:A I *D sg13g2_nor3_1
*I *369:A_N I *D sg13g2_nand2b_1
*I *507:X O *D sg13g2_buf_1
*CAP
1 *342:B 0
2 *343:B 0
3 *454:A 0
4 *437:B1 0
5 *438:A 0
6 *393:B 0
7 *433:A 0
8 *369:A_N 0
9 *507:X 0.000220294
10 *199:100 0.000120972
11 *199:85 0.000572636
12 *199:69 0.0010808
13 *199:54 0.000809377
14 *199:45 0.000195969
15 *199:37 0.000581192
16 *199:28 0.001966
17 *199:14 0.00187455
18 *199:12 0.00033383
19 *199:28 *414:B1 0
20 *199:28 *479:A 0.000112289
21 *199:28 *203:20 0
22 *199:28 *210:33 0
23 *199:28 *211:14 7.9712e-05
24 *199:45 *201:44 0
25 *199:54 *414:B1 0
26 *199:85 *361:B 4.77425e-05
27 *199:85 *202:111 0
28 *199:100 *361:B 3.23417e-05
29 *199:100 *201:77 0
30 *199:100 *205:87 0
31 *369:B *199:28 1.54008e-05
32 *369:B *199:37 0
33 *369:B *199:45 0
34 *369:B *199:54 0
35 *386:B *199:28 0
36 *393:A_N *199:54 1.54008e-05
37 *393:A_N *199:69 3.23417e-05
38 *414:A2 *199:28 0.000241792
39 *416:B1 *199:28 0.000209676
40 *418:B1 *199:54 0
41 *438:B *199:100 3.15716e-05
42 *438:C *199:85 0.000111687
43 *441:A2 *199:85 7.84876e-05
44 *442:B1 *199:85 0
45 *442:A1 *199:69 0
46 *486:RESET_B *199:28 0.000497103
47 *489:RESET_B *199:12 0.000143918
48 *515:A *199:12 0.000143918
49 *29:10 *199:12 0.000238494
50 *29:10 *199:14 0.000343057
51 *29:10 *199:28 0.000335159
52 *44:10 *199:28 0
53 *53:22 *199:45 8.50879e-05
54 *53:48 *199:85 7.51285e-05
55 *57:10 *199:28 0
56 *71:8 *199:100 7.51285e-05
57 *71:17 *199:100 0.000181192
58 *92:22 *199:37 0
59 *110:8 *199:85 0.000443813
60 *112:10 *199:54 4.7383e-05
61 *112:10 *199:69 0.000143469
62 *130:30 *199:69 0
63 *155:17 *199:100 0.00012816
64 *168:21 *199:69 0
65 *172:15 *199:12 0
66 *172:15 *199:14 0
67 *173:24 *199:28 0
68 *190:10 *199:28 0
69 *190:12 *199:28 0
70 *190:92 *199:28 0
71 *194:46 *199:69 0
72 *195:57 *199:69 0.000468338
73 *195:59 *199:54 0
*RES
1 *507:X *199:12 42.8428 
2 *199:12 *199:14 1.5862 
3 *199:14 *199:28 37.0568 
4 *199:28 *369:A_N 20 
5 *199:28 *199:37 1.9673 
6 *199:37 *199:45 41.8128 
7 *199:45 *433:A 20 
8 *199:37 *199:54 2.0909 
9 *199:54 *393:B 20 
10 *199:54 *199:69 45.6856 
11 *199:69 *199:85 45.0676 
12 *199:85 *438:A 20 
13 *199:85 *199:100 41.7304 
14 *199:100 *437:B1 20 
15 *199:69 *454:A 20 
16 *199:14 *343:B 40 
17 *199:12 *342:B 40 
*END

*D_NET *200 0.0149245
*CONN
*I *358:A I *D sg13g2_nor2_1
*I *398:B_N I *D sg13g2_nor2b_1
*I *389:A1 I *D sg13g2_a21oi_1
*I *397:A1 I *D sg13g2_o21ai_1
*I *402:A_N I *D sg13g2_nand2b_1
*I *386:A I *D sg13g2_nor3_1
*I *338:B I *D sg13g2_nand2_1
*I *339:B I *D sg13g2_xnor2_1
*I *508:X O *D sg13g2_buf_1
*CAP
1 *358:A 0.000696115
2 *398:B_N 4.82555e-05
3 *389:A1 4.48199e-05
4 *397:A1 0.000123124
5 *402:A_N 4.45374e-05
6 *386:A 0.000179765
7 *338:B 0.000223691
8 *339:B 0
9 *508:X 0
10 *200:92 0.00141029
11 *200:81 0.000830965
12 *200:68 0.000380569
13 *200:57 0.000717627
14 *200:42 0.00110846
15 *200:38 0.000898429
16 *200:14 8.01825e-05
17 *200:8 0.00066009
18 *200:4 0.000861829
19 *358:A *209:24 0
20 *386:A *204:84 0
21 *386:A *207:16 0
22 *402:A_N *402:B 4.77425e-05
23 *200:38 *476:A 0
24 *200:38 *508:A 0
25 *200:42 *207:16 0
26 *200:57 *479:A 0.000181192
27 *200:57 *207:14 0
28 *200:57 *207:16 0
29 *200:57 *207:62 0.000389106
30 *200:57 *211:36 0.000476947
31 *200:57 *211:49 0.000159096
32 *200:68 *207:62 5.15366e-05
33 *200:92 *208:10 0
34 *335:A1 *200:38 7.99828e-05
35 *335:A2 *200:38 1.54556e-05
36 *338:A *338:B 0
37 *358:B *358:A 0
38 *389:A2 *389:A1 7.98757e-05
39 *389:B1 *402:A_N 8.00842e-05
40 *390:B *389:A1 1.54008e-05
41 *390:B *397:A1 4.78521e-05
42 *397:A2 *397:A1 4.78521e-05
43 *520:A *200:38 0
44 *27:12 *358:A 0
45 *41:12 *200:38 0
46 *41:50 *200:92 0.000550147
47 *56:26 *386:A 0
48 *56:30 *200:57 0
49 *56:30 *200:68 0
50 *56:53 *389:A1 1.54008e-05
51 *57:10 *386:A 0
52 *62:10 *200:92 0
53 *74:12 *200:68 0
54 *77:8 *200:92 0
55 *101:14 *200:92 0
56 *113:16 *358:A 0.0006593
57 *134:6 *200:8 0
58 *134:6 *200:38 0
59 *134:18 *338:B 0.000274643
60 *134:18 *200:8 0
61 *153:6 *358:A 0.000594988
62 *175:10 *200:38 4.71858e-05
63 *176:14 *398:B_N 7.98757e-05
64 *189:18 *200:92 0.000599576
65 *189:38 *358:A 0.000965673
66 *189:38 *200:92 0.000529244
67 *190:26 *200:8 0.000162057
68 *190:36 *200:8 8.03692e-05
69 *191:37 *358:A 0.000337618
70 *191:37 *398:B_N 4.7534e-05
*RES
1 *508:X *200:4 20 
2 *200:4 *200:8 3.914 
3 *200:8 *200:14 40.8446 
4 *200:14 *339:B 20 
5 *200:8 *338:B 22.6162 
6 *200:4 *200:38 45.0676 
7 *200:38 *200:42 23.811 
8 *200:42 *386:A 41.854 
9 *200:42 *200:57 6.0358 
10 *200:57 *402:A_N 40.5356 
11 *200:57 *200:68 1.0918 
12 *200:68 *397:A1 41.5038 
13 *200:68 *200:81 0.8446 
14 *200:81 *389:A1 40.5356 
15 *200:81 *200:92 7.7662 
16 *200:92 *398:B_N 40.5356 
17 *200:92 *358:A 48.9816 
*END

*D_NET *201 0.00894659
*CONN
*I *377:B1 I *D sg13g2_a21oi_1
*I *374:B I *D sg13g2_nand2b_1
*I *418:A1 I *D sg13g2_o21ai_1
*I *415:B1 I *D sg13g2_a21o_1
*I *399:B1 I *D sg13g2_o21ai_1
*I *435:A I *D sg13g2_xor2_1
*I *417:B1 I *D sg13g2_o21ai_1
*I *414:B1 I *D sg13g2_o21ai_1
*I *509:X O *D sg13g2_buf_1
*CAP
1 *377:B1 0.0002336
2 *374:B 0
3 *418:A1 0
4 *415:B1 0.000202681
5 *399:B1 0
6 *435:A 0
7 *417:B1 0
8 *414:B1 0.000267216
9 *509:X 0.000947735
10 *201:77 0.000467196
11 *201:58 0.000547274
12 *201:54 0.000472335
13 *201:44 0.00104451
14 *201:16 0.000929486
15 *201:12 0.000319919
16 *201:10 0.000821357
17 *377:B1 *376:A 0
18 *377:B1 *202:96 0
19 *377:B1 *202:111 0
20 *377:B1 *209:63 0
21 *415:B1 *206:62 0
22 *415:B1 *210:33 0.000339333
23 *201:10 *510:A 0.000112426
24 *201:10 *202:6 0.000110661
25 *201:10 *202:96 3.23417e-05
26 *201:16 *210:70 0
27 *201:44 *206:79 0
28 *201:44 *210:59 0
29 *201:44 *210:70 0
30 *201:54 *206:62 0
31 *201:54 *210:33 0
32 *201:54 *210:52 0.000144974
33 *201:77 *361:B 0
34 *201:77 *202:111 0.000176013
35 *201:77 *205:76 0.000112335
36 *201:77 *205:87 1.54556e-05
37 *201:77 *206:85 0.000289814
38 *201:77 *206:116 4.78195e-05
39 *380:A2 *201:10 0
40 *395:C *377:B1 0
41 *396:A *201:10 0
42 *396:B_N *201:10 1.54008e-05
43 *414:A2 *414:B1 0
44 *418:B1 *414:B1 0
45 *418:A2 *201:12 0
46 *418:A2 *201:16 0
47 *418:A2 *201:44 0
48 *434:A *201:54 0.000144661
49 *434:A *201:58 0.00014434
50 *434:A *201:77 3.23417e-05
51 *435:B *201:58 0.00014434
52 *435:B *201:77 9.04333e-05
53 *436:B *201:77 0
54 *436:C *201:77 0
55 *440:A2 *377:B1 0
56 *41:12 *415:B1 0
57 *41:12 *201:54 0
58 *41:110 *201:54 0
59 *52:8 *201:10 0.000280602
60 *53:22 *201:77 0.0001765
61 *53:41 *414:B1 1.54282e-05
62 *53:41 *201:44 0.000139899
63 *89:10 *414:B1 0
64 *92:22 *414:B1 0
65 *92:22 *201:44 0
66 *106:8 *201:77 0.00012816
67 *162:19 *201:10 0
68 *162:19 *201:12 0
69 *162:19 *201:16 0
70 *162:34 *201:10 0
71 *166:8 *201:10 0
72 *199:28 *414:B1 0
73 *199:45 *201:44 0
74 *199:54 *414:B1 0
75 *199:100 *201:77 0
*RES
1 *509:X *201:10 46.1388 
2 *201:10 *201:12 0.8446 
3 *201:12 *201:16 21.5862 
4 *201:16 *414:B1 22.884 
5 *201:16 *417:B1 20 
6 *201:16 *201:44 24.4908 
7 *201:44 *201:54 43.8934 
8 *201:54 *201:58 20.9682 
9 *201:58 *435:A 20 
10 *201:58 *201:77 45.3972 
11 *201:77 *399:B1 20 
12 *201:44 *415:B1 42.266 
13 *201:12 *418:A1 40 
14 *201:10 *374:B 40 
15 *509:X *377:B1 42.2145 
*END

*D_NET *202 0.0151515
*CONN
*I *436:A I *D sg13g2_nor3_1
*I *509:A I *D sg13g2_buf_1
*I *407:A I *D sg13g2_nor2_1
*I *406:B1 I *D sg13g2_o21ai_1
*I *357:A I *D sg13g2_nor2_1
*I *363:A I *D sg13g2_nand2_1
*I *424:A I *D sg13g2_nand3_1
*I *392:A1 I *D sg13g2_a221oi_1
*I *510:X O *D sg13g2_buf_1
*CAP
1 *436:A 0
2 *509:A 0
3 *407:A 0.000213184
4 *406:B1 0.000628089
5 *357:A 2.60565e-05
6 *363:A 0.000229094
7 *424:A 0.000189433
8 *392:A1 0
9 *510:X 7.19294e-05
10 *202:111 0.000850973
11 *202:96 0.00100699
12 *202:72 0.000956633
13 *202:59 0.000422089
14 *202:33 0.00067799
15 *202:25 0.000598238
16 *202:14 0.000543363
17 *202:6 0.000713203
18 *406:B1 *211:131 0.000112426
19 *424:A *205:76 0.000179386
20 *424:A *209:74 1.54008e-05
21 *424:A *209:91 4.76154e-05
22 *202:6 *203:64 7.89542e-05
23 *202:14 *387:B1 0
24 *202:14 *203:64 0.000336424
25 *202:14 *203:83 0.000179519
26 *202:25 *387:B1 2.14475e-05
27 *202:33 *205:60 0.000244198
28 *202:111 *204:43 0
29 *202:111 *206:85 0
30 *363:B *363:A 0
31 *363:B *424:A 0.000160013
32 *364:A *202:59 0.000181192
33 *364:A *202:72 0.000106151
34 *377:A2 *424:A 4.77425e-05
35 *377:B1 *202:96 0
36 *377:B1 *202:111 0
37 *378:B *406:B1 0
38 *392:B1 *202:14 4.77425e-05
39 *392:A2 *202:14 0
40 *407:B *406:B1 0.000789818
41 *407:B *407:A 3.23417e-05
42 *409:B1 *357:A 4.77425e-05
43 *428:B1 *202:14 0
44 *428:A1 *202:14 0.000112422
45 *428:A1 *202:25 0
46 *436:B *202:111 0
47 *440:A2 *202:14 0
48 *440:A2 *202:111 0.000237608
49 *445:A_N *406:B1 0.000434528
50 *469:B *407:A 0
51 *473:B *406:B1 0
52 *53:48 *202:111 0
53 *106:8 *202:111 0
54 *110:8 *202:111 0
55 *130:8 *202:111 0.00023464
56 *130:30 *202:111 0.00118363
57 *149:33 *406:B1 3.15829e-05
58 *152:8 *357:A 4.77425e-05
59 *152:55 *202:59 0
60 *155:39 *424:A 7.51285e-05
61 *157:18 *202:33 0
62 *157:37 *202:59 0
63 *169:8 *424:A 0.00012816
64 *170:14 *202:14 0.00030522
65 *170:18 *202:14 0
66 *189:86 *202:59 0.000712757
67 *189:86 *202:72 0.000607109
68 *189:92 *202:33 7.45103e-05
69 *189:92 *202:59 0.000157571
70 *194:31 *202:96 0
71 *194:31 *202:111 0
72 *194:46 *202:14 0.000234274
73 *194:46 *202:96 0
74 *197:10 *406:B1 0
75 *198:50 *202:72 0.000500215
76 *199:85 *202:111 0
77 *201:10 *202:6 0.000110661
78 *201:10 *202:96 3.23417e-05
79 *201:77 *202:111 0.000176013
*RES
1 *510:X *202:6 20.7519 
2 *202:6 *202:14 45.4899 
3 *202:14 *392:A1 20 
4 *202:14 *202:25 20.6695 
5 *202:25 *202:33 42.3999 
6 *202:33 *424:A 42.472 
7 *202:33 *363:A 42.1836 
8 *202:25 *202:59 4.0582 
9 *202:59 *357:A 40.3193 
10 *202:59 *202:72 22.8222 
11 *202:72 *406:B1 26.8289 
12 *202:72 *407:A 21.9673 
13 *202:6 *202:96 1.8128 
14 *202:96 *509:A 20 
15 *202:96 *202:111 49.4245 
16 *202:111 *436:A 20 
*END

*D_NET *203 0.0133453
*CONN
*I *405:A1 I *D sg13g2_o21ai_1
*I *445:B I *D sg13g2_nand3b_1
*I *510:A I *D sg13g2_buf_1
*I *404:A1 I *D sg13g2_a21oi_1
*I *508:A I *D sg13g2_buf_1
*I *511:X O *D sg13g2_buf_1
*CAP
1 *405:A1 2.96685e-05
2 *445:B 0
3 *510:A 7.35763e-05
4 *404:A1 0.000184773
5 *508:A 0.000146257
6 *511:X 0.000117108
7 *203:83 0.00122549
8 *203:64 0.00025656
9 *203:54 0.00140848
10 *203:52 0.000894187
11 *203:46 0.00103626
12 *203:33 0.000578694
13 *203:20 0.00107842
14 *203:12 0.00127209
15 *203:8 0.000175512
16 *203:52 *205:60 0
17 *203:52 *209:59 0
18 *203:64 *210:81 0.000515813
19 *203:64 *210:106 2.14736e-05
20 *203:83 *210:106 0.000367188
21 *389:A2 *404:A1 0
22 *404:A2 *404:A1 1.54008e-05
23 *405:B1 *404:A1 2.21754e-05
24 *405:B1 *405:A1 0
25 *405:B1 *203:46 0
26 *405:A2 *405:A1 1.54008e-05
27 *429:A *203:83 0
28 *445:C *203:83 1.54008e-05
29 *445:A_N *203:83 0.000284521
30 *485:CLK *203:20 0.000112241
31 *487:RESET_B *203:12 6.3946e-05
32 *487:RESET_B *203:20 0.000273354
33 *515:A *404:A1 0
34 *27:12 *203:33 0
35 *28:8 *203:20 0
36 *41:29 *203:20 0
37 *41:29 *203:33 0.000760079
38 *44:10 *203:20 0
39 *47:10 *203:20 0
40 *56:30 *203:8 0
41 *56:53 *404:A1 0
42 *56:53 *203:46 0
43 *60:6 *404:A1 0
44 *75:8 *203:46 0
45 *75:16 *203:52 0
46 *99:8 *203:83 0
47 *132:8 *203:20 0
48 *134:6 *508:A 0.000207363
49 *158:22 *203:64 0.000179892
50 *158:22 *203:83 0
51 *170:18 *203:83 0
52 *171:12 *203:83 0
53 *175:31 *203:8 0.00028473
54 *175:31 *203:33 0.00102196
55 *190:12 *203:20 0
56 *198:42 *203:83 0
57 *199:28 *203:20 0
58 *200:38 *508:A 0
59 *201:10 *510:A 0.000112426
60 *202:6 *203:64 7.89542e-05
61 *202:14 *203:64 0.000336424
62 *202:14 *203:83 0.000179519
*RES
1 *511:X *203:8 41.339 
2 *203:8 *203:12 20.5356 
3 *203:12 *203:20 48.858 
4 *203:20 *508:A 21.4008 
5 *203:12 *203:33 44.7998 
6 *203:33 *404:A1 21.8849 
7 *203:33 *203:46 0.9682 
8 *203:46 *203:52 48.9713 
9 *203:52 *203:54 20 
10 *203:54 *203:64 42.9664 
11 *203:64 *510:A 40.7519 
12 *203:54 *203:83 31.845 
13 *203:83 *445:B 20 
14 *203:46 *405:A1 20.3193 
*END

*D_NET *204 0.0141116
*CONN
*I *420:A1 I *D sg13g2_o21ai_1
*I *384:A I *D sg13g2_xnor2_1
*I *332:B I *D sg13g2_and2_1
*I *336:B I *D sg13g2_xor2_1
*I *362:B I *D sg13g2_nand2_1
*I *361:B I *D sg13g2_and2_1
*I *375:B I *D sg13g2_nand2_1
*I *352:A I *D sg13g2_nor2_1
*I *512:X O *D sg13g2_buf_1
*CAP
1 *420:A1 0.000211721
2 *384:A 0
3 *332:B 0.000183466
4 *336:B 0.000165822
5 *362:B 0.000164234
6 *361:B 0.000689475
7 *375:B 3.76358e-05
8 *352:A 0
9 *512:X 2.75384e-05
10 *204:84 0.00119768
11 *204:76 0.000912792
12 *204:43 0.00109859
13 *204:30 0.00117399
14 *204:16 0.00113555
15 *204:14 0.000888056
16 *204:8 0.00089412
17 *361:B *206:116 0
18 *362:B *206:51 0
19 *204:14 *207:16 0
20 *204:16 *207:16 0
21 *204:30 *207:34 0.000842074
22 *204:43 *207:34 4.77425e-05
23 *204:76 *210:33 0.000112426
24 *204:84 *334:B 0.000304711
25 *204:84 *384:B 8.03089e-05
26 *204:84 *385:A 9.68078e-05
27 *204:84 *476:A 0
28 *204:84 *206:16 0.000272179
29 *204:84 *210:33 1.54008e-05
30 *334:A *204:84 0
31 *386:A *204:84 0
32 *389:B1 *420:A1 0
33 *389:B1 *204:8 4.77425e-05
34 *420:A2 *420:A1 0.000208145
35 *431:A *420:A1 0.000337127
36 *431:A *204:14 0.000285951
37 *437:A1 *361:B 8.00842e-05
38 *441:A2 *361:B 0.000111032
39 *442:B1 *361:B 0
40 *442:B1 *375:B 0
41 *442:A1 *375:B 0
42 *463:B1 *361:B 0
43 *475:B *204:84 1.54008e-05
44 *475:A *204:84 0
45 *517:A *204:84 0.000207496
46 *30:10 *204:84 0.000207554
47 *32:12 *332:B 0
48 *41:12 *362:B 0.000242138
49 *41:116 *204:43 0.00012816
50 *53:22 *361:B 0
51 *54:12 *204:14 0
52 *56:26 *204:84 0
53 *58:8 *204:14 0
54 *87:8 *204:14 0
55 *90:8 *204:14 0
56 *91:10 *420:A1 0.000316067
57 *91:10 *204:14 0.000548557
58 *105:8 *204:43 0
59 *130:8 *204:43 0
60 *130:12 *361:B 0
61 *130:18 *204:43 0.000550996
62 *131:10 *332:B 0
63 *131:10 *336:B 0
64 *134:6 *204:84 0
65 *147:10 *204:43 1.54556e-05
66 *155:6 *361:B 0.000177273
67 *156:8 *204:16 0
68 *175:18 *204:84 0
69 *190:12 *332:B 0
70 *190:16 *332:B 0
71 *190:26 *336:B 0
72 *199:85 *361:B 4.77425e-05
73 *199:100 *361:B 3.23417e-05
74 *201:77 *361:B 0
75 *202:111 *204:43 0
*RES
1 *512:X *204:8 40.3193 
2 *204:8 *204:14 7.1997 
3 *204:14 *204:16 1.5862 
4 *204:16 *204:30 28.9919 
5 *204:30 *352:A 20 
6 *204:30 *204:43 44.6247 
7 *204:43 *375:B 20.3193 
8 *204:43 *361:B 27.2409 
9 *204:16 *362:B 41.6171 
10 *204:14 *204:76 20.7519 
11 *204:76 *204:84 28.343 
12 *204:84 *336:B 41.8334 
13 *204:84 *332:B 42.0806 
14 *204:76 *384:A 20 
15 *204:8 *420:A1 42.987 
*END

*D_NET *205 0.0151686
*CONN
*I *373:B2 I *D sg13g2_a22oi_1
*I *387:A2 I *D sg13g2_o21ai_1
*I *381:A I *D sg13g2_nor2_1
*I *383:A1 I *D sg13g2_a21oi_1
*I *399:A2 I *D sg13g2_o21ai_1
*I *400:B1 I *D sg13g2_o21ai_1
*I *353:B I *D sg13g2_nor2_1
*I *512:A I *D sg13g2_buf_1
*I *513:X O *D sg13g2_buf_1
*CAP
1 *373:B2 0
2 *387:A2 0
3 *381:A 0
4 *383:A1 0.000460881
5 *399:A2 0
6 *400:B1 0.000352024
7 *353:B 0
8 *512:A 0.000482566
9 *513:X 0.000200466
10 *205:87 0.000666085
11 *205:76 0.00117199
12 *205:62 0.000966781
13 *205:60 0.00074029
14 *205:54 0.000940757
15 *205:27 0.00113037
16 *205:6 0.00126091
17 *383:A1 *207:34 0
18 *383:A1 *210:52 0.00050013
19 *400:B1 *209:24 0.000191679
20 *512:A *211:62 0.000984244
21 *205:27 *211:62 0.000638962
22 *205:27 *211:74 0.000531963
23 *205:54 *373:A1 0
24 *205:60 *209:59 0
25 *205:76 *206:116 6.95229e-05
26 *205:76 *207:142 7.33225e-05
27 *205:76 *210:52 0
28 *205:87 *206:116 0
29 *389:B1 *512:A 0.000175799
30 *395:B *205:54 0
31 *397:B1 *205:54 0
32 *398:A *400:B1 0
33 *413:A2 *205:54 0
34 *424:A *205:76 0.000179386
35 *431:A *512:A 0
36 *437:A1 *205:87 0
37 *463:A1 *205:76 0
38 *463:A2 *205:76 0.000529934
39 *25:8 *400:B1 0.000288675
40 *31:16 *512:A 0
41 *31:33 *512:A 0
42 *31:33 *205:27 0
43 *35:69 *400:B1 0.000500323
44 *35:69 *205:27 7.34121e-05
45 *41:110 *383:A1 1.54008e-05
46 *53:10 *383:A1 0
47 *53:10 *205:76 0.00012816
48 *53:48 *205:76 7.53228e-05
49 *71:8 *205:76 0.00018261
50 *71:17 *205:76 0.000316869
51 *90:8 *512:A 0
52 *95:8 *205:76 0.000181608
53 *102:12 *512:A 0
54 *107:10 *205:76 0.000288587
55 *125:10 *205:76 0
56 *148:50 *205:27 0
57 *148:50 *205:54 0.000209703
58 *155:28 *205:76 0
59 *157:18 *205:60 0
60 *157:26 *205:60 0
61 *164:12 *205:54 0
62 *169:8 *205:76 0.000287845
63 *195:49 *205:76 0
64 *196:39 *205:27 0
65 *196:96 *205:27 0
66 *199:100 *205:87 0
67 *201:77 *205:76 0.000112335
68 *201:77 *205:87 1.54556e-05
69 *202:33 *205:60 0.000244198
70 *203:52 *205:60 0
*RES
1 *513:X *205:6 40 
2 *205:6 *512:A 45.2118 
3 *205:6 *205:27 48.9301 
4 *205:27 *353:B 40 
5 *205:27 *400:B1 44.4856 
6 *513:X *205:54 22.2145 
7 *205:54 *205:60 47.6735 
8 *205:60 *205:62 20 
9 *205:62 *205:76 31.5566 
10 *205:76 *399:A2 20 
11 *205:76 *205:87 2.8428 
12 *205:87 *383:A1 24.5938 
13 *205:87 *381:A 20 
14 *205:62 *387:A2 40 
15 *205:54 *373:B2 20 
*END

*D_NET *206 0.00839371
*CONN
*I *417:A1 I *D sg13g2_o21ai_1
*I *361:A I *D sg13g2_and2_1
*I *328:A I *D sg13g2_inv_1
*I *382:A I *D sg13g2_nor2_1
*I *362:A I *D sg13g2_nand2_1
*I *385:A I *D sg13g2_and2_1
*I *333:B I *D sg13g2_nand2_1
*I *334:B I *D sg13g2_xnor2_1
*I *514:X O *D sg13g2_buf_1
*CAP
1 *417:A1 0.000215478
2 *361:A 0
3 *328:A 0
4 *382:A 0
5 *362:A 0
6 *385:A 5.95857e-05
7 *333:B 0.00013914
8 *334:B 0.000272114
9 *514:X 0
10 *206:116 0.000623738
11 *206:85 0.000808955
12 *206:79 0.000625943
13 *206:64 0.000440726
14 *206:62 0.000560208
15 *206:51 0.000741997
16 *206:16 0.000571481
17 *206:12 0.000488644
18 *206:4 0.000666099
19 *334:B *476:A 4.78195e-05
20 *206:12 *476:A 0
21 *206:12 *514:A 0
22 *206:51 *384:B 0
23 *206:51 *514:A 0
24 *206:51 *210:33 0
25 *206:62 *210:37 0
26 *206:79 *210:33 0.000144872
27 *206:79 *210:59 0
28 *206:116 *210:52 0
29 *361:B *206:116 0
30 *362:B *206:51 0
31 *415:A2 *206:62 0
32 *415:B1 *206:62 0
33 *437:A1 *206:116 0
34 *475:A *334:B 0
35 *486:RESET_B *333:B 0
36 *486:RESET_B *206:16 0
37 *28:8 *333:B 0
38 *41:12 *206:62 0
39 *53:22 *206:79 0
40 *53:22 *206:85 0
41 *53:41 *417:A1 0.000341119
42 *54:12 *417:A1 0
43 *56:26 *385:A 7.98757e-05
44 *57:10 *333:B 0
45 *57:10 *385:A 0
46 *57:10 *206:16 0
47 *71:8 *206:116 2.21839e-05
48 *132:8 *333:B 0.000159096
49 *132:8 *334:B 0.00012816
50 *133:6 *334:B 0
51 *134:6 *334:B 0
52 *155:6 *206:116 0
53 *156:8 *206:62 0
54 *162:8 *417:A1 0
55 *162:19 *417:A1 0
56 *175:18 *206:16 0.000175618
57 *201:44 *206:79 0
58 *201:54 *206:62 0
59 *201:77 *206:85 0.000289814
60 *201:77 *206:116 4.78195e-05
61 *202:111 *206:85 0
62 *204:84 *334:B 0.000304711
63 *204:84 *385:A 9.68078e-05
64 *204:84 *206:16 0.000272179
65 *205:76 *206:116 6.95229e-05
66 *205:87 *206:116 0
*RES
1 *514:X *206:4 20 
2 *206:4 *206:12 42.3381 
3 *206:12 *206:16 21.8334 
4 *206:16 *334:B 42.9973 
5 *206:16 *333:B 41.4575 
6 *206:12 *385:A 20.7519 
7 *206:4 *206:51 3.5638 
8 *206:51 *362:A 20 
9 *206:51 *206:62 23.4196 
10 *206:62 *206:64 20 
11 *206:64 *382:A 20 
12 *206:64 *206:79 44.8822 
13 *206:79 *206:85 41.8334 
14 *206:85 *328:A 20 
15 *206:85 *206:116 46.9422 
16 *206:116 *361:A 20 
17 *206:62 *417:A1 42.3278 
*END

*D_NET *207 0.0210665
*CONN
*I *370:A I *D sg13g2_nor2_1
*I *387:A1 I *D sg13g2_o21ai_1
*I *371:A I *D sg13g2_xnor2_1
*I *400:A1 I *D sg13g2_o21ai_1
*I *353:A I *D sg13g2_nor2_1
*I *402:B I *D sg13g2_nand2b_1
*I *514:A I *D sg13g2_buf_1
*I *399:A1 I *D sg13g2_o21ai_1
*I *515:X O *D sg13g2_buf_1
*CAP
1 *370:A 2.92417e-05
2 *387:A1 0
3 *371:A 9.26164e-05
4 *400:A1 0
5 *353:A 0
6 *402:B 2.89506e-05
7 *514:A 0.00023213
8 *399:A1 0
9 *515:X 0
10 *207:142 0.000284133
11 *207:134 0.0013878
12 *207:115 0.00145393
13 *207:106 0.00032753
14 *207:91 0.00106666
15 *207:62 0.000311288
16 *207:40 0.000203705
17 *207:34 0.001402
18 *207:16 0.0020383
19 *207:14 0.00140951
20 *207:8 0.001313
21 *207:4 0.000341467
22 *371:A *371:B 0.000112426
23 *371:A *210:106 0.000161692
24 *207:14 *208:10 0
25 *207:16 *211:36 0
26 *207:62 *481:A 7.9947e-05
27 *207:62 *211:62 0.000193615
28 *207:91 *211:82 8.01773e-05
29 *207:91 *211:98 8.03692e-05
30 *207:106 *209:24 0.000158745
31 *207:115 *210:106 0.000305882
32 *207:134 *371:B 0.000112426
33 *207:134 *210:106 0
34 *207:142 *209:91 0
35 *368:B *207:106 7.9046e-05
36 *372:A *207:134 0.000241979
37 *383:A1 *207:34 0
38 *386:A *207:16 0
39 *388:B *207:91 1.54008e-05
40 *389:B1 *402:B 1.54008e-05
41 *391:A_N *207:142 0.000182109
42 *394:A2 *207:134 0
43 *402:A_N *402:B 4.77425e-05
44 *411:A *207:91 1.54008e-05
45 *412:A2 *207:14 0.000365896
46 *412:A2 *207:115 1.54008e-05
47 *413:A2 *207:115 0
48 *422:A1 *207:16 0.000234399
49 *423:B1 *207:134 0
50 *423:A2 *207:134 0
51 *424:C *207:142 4.78192e-05
52 *428:B1 *207:134 0
53 *428:A1 *207:134 0
54 *428:A2 *207:134 0
55 *465:A1 *207:142 5.30319e-05
56 *515:A *207:8 4.77425e-05
57 *515:A *207:91 0
58 *27:12 *207:106 0
59 *41:12 *514:A 0.000338604
60 *41:12 *207:34 0.000901016
61 *41:63 *207:91 0.00012816
62 *41:110 *207:34 0.000306607
63 *53:10 *207:40 0
64 *56:30 *207:62 0.000440843
65 *57:14 *207:16 0.000181192
66 *58:8 *207:14 0.000336535
67 *58:8 *207:16 0.000813331
68 *62:10 *207:14 0.000385644
69 *73:18 *207:115 0
70 *73:18 *207:134 6.99672e-05
71 *74:20 *207:14 7.31655e-05
72 *84:10 *207:14 0.000287672
73 *84:10 *207:91 0
74 *95:8 *207:142 0.000388042
75 *101:14 *207:106 3.04166e-05
76 *147:10 *207:34 0
77 *148:8 *207:91 0
78 *148:8 *207:106 7.93733e-05
79 *158:8 *207:134 0
80 *163:8 *370:A 3.23417e-05
81 *163:8 *207:134 1.54008e-05
82 *175:31 *207:106 0.000285539
83 *189:18 *207:91 0
84 *195:49 *207:142 0
85 *196:35 *207:91 0
86 *196:35 *207:106 0
87 *200:42 *207:16 0
88 *200:57 *207:14 0
89 *200:57 *207:16 0
90 *200:57 *207:62 0.000389106
91 *200:68 *207:62 5.15366e-05
92 *204:14 *207:16 0
93 *204:16 *207:16 0
94 *204:30 *207:34 0.000842074
95 *204:43 *207:34 4.77425e-05
96 *205:76 *207:142 7.33225e-05
97 *206:12 *514:A 0
98 *206:51 *514:A 0
*RES
1 *515:X *207:4 20 
2 *207:4 *207:8 20.5356 
3 *207:8 *207:14 6.4581 
4 *207:14 *207:16 7.2718 
5 *207:16 *207:34 33.2818 
6 *207:34 *207:40 42.0806 
7 *207:40 *399:A1 20 
8 *207:16 *514:A 42.266 
9 *207:14 *207:62 43.914 
10 *207:62 *402:B 40.3193 
11 *207:8 *207:91 27.6632 
12 *207:91 *353:A 20 
13 *207:91 *207:106 43.5921 
14 *207:106 *400:A1 20 
15 *207:4 *207:115 2.8325 
16 *207:115 *371:A 21.1845 
17 *207:115 *207:134 8.3764 
18 *207:134 *207:142 43.3887 
19 *207:142 *387:A1 20 
20 *207:134 *370:A 20.3193 
*END

*D_NET *208 0.00583815
*CONN
*I *535:A I *D sg13g2_buf_1
*I *413:Y O *D sg13g2_a22oi_1
*CAP
1 *535:A 0
2 *413:Y 0.000577245
3 *208:20 2.96211e-05
4 *208:14 0.00109521
5 *208:10 0.00164284
6 *355:A *208:10 0.000530946
7 *390:B *208:10 0
8 *413:B1 *208:10 0.000112651
9 *515:A *208:10 0
10 *41:63 *208:10 0.000598909
11 *102:12 *208:14 0
12 *179:8 *208:20 4.77425e-05
13 *186:25 *208:14 0
14 *189:18 *208:10 0.000599576
15 *189:38 *208:10 0.000603405
16 *200:92 *208:10 0
17 *207:14 *208:10 0
*RES
1 *413:Y *208:10 48.4254 
2 *208:10 *208:14 30.4854 
3 *208:14 *208:20 40.3193 
4 *208:20 *535:A 20 
*END

*D_NET *209 0.0130221
*CONN
*I *406:A1 I *D sg13g2_o21ai_1
*I *371:B I *D sg13g2_xnor2_1
*I *373:A1 I *D sg13g2_a22oi_1
*I *370:B I *D sg13g2_nor2_1
*I *376:A I *D sg13g2_nand2_1
*I *377:A1 I *D sg13g2_a21oi_1
*I *400:A2 I *D sg13g2_o21ai_1
*I *366:B I *D sg13g2_nor2_1
*I *516:X O *D sg13g2_buf_1
*CAP
1 *406:A1 0.000391579
2 *371:B 6.13589e-05
3 *373:A1 7.83677e-05
4 *370:B 0
5 *376:A 2.36489e-05
6 *377:A1 0
7 *400:A2 0
8 *366:B 0
9 *516:X 0.000372172
10 *209:91 0.000534506
11 *209:74 0.00079678
12 *209:63 0.00028501
13 *209:59 0.000679511
14 *209:49 0.000906028
15 *209:47 0.0005228
16 *209:45 0.000995281
17 *209:24 0.000851519
18 *209:12 0.0010333
19 *209:8 0.000217161
20 *209:63 *387:B1 0
21 *209:74 *387:B1 0
22 *209:91 *387:B1 0
23 *355:A *209:8 0.000181387
24 *358:A *209:24 0
25 *363:B *209:91 0.000181608
26 *366:A *209:24 0
27 *367:A2 *209:24 0.000305904
28 *371:A *371:B 0.000112426
29 *376:B *209:91 0
30 *377:A2 *209:63 1.00461e-05
31 *377:A2 *209:74 0.000112333
32 *377:A2 *209:91 0
33 *377:B1 *376:A 0
34 *377:B1 *209:63 0
35 *391:A_N *209:91 0
36 *395:B *373:A1 4.77702e-05
37 *400:B1 *209:24 0.000191679
38 *424:A *209:74 1.54008e-05
39 *424:A *209:91 4.76154e-05
40 *463:B1 *209:91 0
41 *473:A_N *406:A1 0
42 *27:12 *209:24 0.000971754
43 *31:37 *406:A1 0
44 *31:37 *209:47 0
45 *70:10 *209:45 8.00521e-05
46 *72:10 *209:12 0
47 *72:10 *209:45 8.00842e-05
48 *72:25 *406:A1 0
49 *72:25 *209:45 0.000112426
50 *73:6 *209:45 0
51 *73:18 *209:47 0.000602822
52 *97:14 *406:A1 6.31433e-05
53 *101:14 *209:12 0
54 *101:14 *209:24 0
55 *102:12 *209:49 0
56 *102:12 *209:59 0
57 *130:30 *209:59 7.49317e-05
58 *149:8 *209:8 0.00018128
59 *149:16 *406:A1 0
60 *152:55 *209:74 0
61 *155:39 *209:91 0.00012816
62 *157:14 *209:91 0
63 *159:16 *209:45 0
64 *162:34 *209:47 0.000655244
65 *162:34 *209:49 0.00055058
66 *162:34 *209:59 0.000126047
67 *163:8 *209:91 1.54008e-05
68 *170:10 *209:59 7.34778e-05
69 *170:10 *209:63 4.24265e-05
70 *170:10 *209:74 3.78662e-05
71 *172:44 *209:24 0
72 *175:31 *209:24 0
73 *198:8 *209:45 0
74 *203:52 *209:59 0
75 *205:54 *373:A1 0
76 *205:60 *209:59 0
77 *207:106 *209:24 0.000158745
78 *207:134 *371:B 0.000112426
79 *207:142 *209:91 0
*RES
1 *516:X *209:8 40.8446 
2 *209:8 *209:12 21.4008 
3 *209:12 *209:24 49.0022 
4 *209:24 *366:B 20 
5 *209:12 *400:A2 20 
6 *516:X *209:45 43.0488 
7 *209:45 *209:47 4.0582 
8 *209:47 *209:49 2.575 
9 *209:49 *209:59 47.3233 
10 *209:59 *209:63 20.4028 
11 *209:63 *377:A1 20 
12 *209:63 *209:74 2.32265 
13 *209:74 *376:A 20.3502 
14 *209:74 *209:91 45.562 
15 *209:91 *370:B 20 
16 *209:49 *373:A1 40.7519 
17 *209:47 *371:B 40.7519 
18 *209:45 *406:A1 43.2857 
*END

*D_NET *210 0.0163211
*CONN
*I *516:A I *D sg13g2_buf_1
*I *387:B1 I *D sg13g2_o21ai_1
*I *379:A1 I *D sg13g2_o21ai_1
*I *433:B I *D sg13g2_nor3_1
*I *381:B I *D sg13g2_nor2_1
*I *329:A I *D sg13g2_inv_1
*I *384:B I *D sg13g2_xnor2_1
*I *476:A I *D sg13g2_xnor2_1
*I *517:X O *D sg13g2_buf_1
*CAP
1 *516:A 0.00042351
2 *387:B1 0.000635239
3 *379:A1 0
4 *433:B 0
5 *381:B 0
6 *329:A 0
7 *384:B 0.000778533
8 *476:A 0.000277834
9 *517:X 2.77263e-05
10 *210:106 0.00114861
11 *210:81 0.00181492
12 *210:70 0.000930103
13 *210:59 0.000596098
14 *210:52 0.000645189
15 *210:37 0.000730448
16 *210:33 0.00083873
17 *210:6 0.000451205
18 *516:A *211:62 0
19 *334:B *476:A 4.78195e-05
20 *371:A *210:106 0.000161692
21 *372:A *210:106 0
22 *379:A2 *210:81 0.000153407
23 *383:A1 *210:52 0.00050013
24 *392:B2 *387:B1 8.0216e-05
25 *392:B1 *387:B1 3.23417e-05
26 *394:A2 *210:106 0.000159551
27 *395:C *387:B1 0.000401109
28 *413:A2 *210:106 0
29 *415:B1 *210:33 0.000339333
30 *421:B *210:81 0
31 *424:C *387:B1 0
32 *427:B *387:B1 4.78028e-05
33 *431:A *516:A 0.000286687
34 *433:C *210:59 0
35 *433:C *210:70 0
36 *434:A *210:33 1.54008e-05
37 *434:A *210:52 0
38 *434:B *210:33 0
39 *436:C *210:52 0.000240948
40 *476:B *476:A 8.02763e-05
41 *476:B *210:6 0
42 *517:A *476:A 0.000207507
43 *31:33 *210:106 0.000306569
44 *41:12 *476:A 0
45 *41:110 *210:52 0
46 *42:8 *516:A 0
47 *53:10 *210:52 0.000122749
48 *53:22 *210:33 0
49 *54:12 *210:33 0
50 *56:10 *210:33 0.000339398
51 *72:10 *516:A 0.000112426
52 *101:14 *516:A 0
53 *112:18 *210:70 0.00054882
54 *130:18 *210:59 0
55 *158:22 *210:70 0.000181297
56 *158:22 *210:81 0
57 *158:22 *210:106 0
58 *163:8 *387:B1 0
59 *168:21 *210:70 0
60 *170:14 *387:B1 4.77425e-05
61 *189:86 *387:B1 0
62 *192:8 *516:A 0.000547115
63 *194:46 *210:81 0
64 *195:57 *210:70 0.000332816
65 *195:57 *210:81 0
66 *199:28 *210:33 0
67 *200:38 *476:A 0
68 *201:16 *210:70 0
69 *201:44 *210:59 0
70 *201:44 *210:70 0
71 *201:54 *210:33 0
72 *201:54 *210:52 0.000144974
73 *202:14 *387:B1 0
74 *202:25 *387:B1 2.14475e-05
75 *203:64 *210:81 0.000515813
76 *203:64 *210:106 2.14736e-05
77 *203:83 *210:106 0.000367188
78 *204:76 *210:33 0.000112426
79 *204:84 *384:B 8.03089e-05
80 *204:84 *476:A 0
81 *204:84 *210:33 1.54008e-05
82 *205:76 *210:52 0
83 *206:12 *476:A 0
84 *206:51 *384:B 0
85 *206:51 *210:33 0
86 *206:62 *210:37 0
87 *206:79 *210:33 0.000144872
88 *206:79 *210:59 0
89 *206:116 *210:52 0
90 *207:115 *210:106 0.000305882
91 *207:134 *210:106 0
92 *209:63 *387:B1 0
93 *209:74 *387:B1 0
94 *209:91 *387:B1 0
*RES
1 *517:X *210:6 20.3502 
2 *210:6 *476:A 22.6986 
3 *210:6 *384:B 21.4008 
4 *384:B *210:33 46.6126 
5 *210:33 *210:37 20.8446 
6 *210:37 *329:A 20 
7 *210:37 *210:52 46.6744 
8 *210:52 *381:B 20 
9 *210:33 *210:59 1.0918 
10 *210:59 *433:B 40 
11 *210:59 *210:70 25.5414 
12 *210:70 *379:A1 20 
13 *210:70 *210:81 24.3157 
14 *210:81 *387:B1 46.2315 
15 *210:81 *210:106 47.7765 
16 *210:106 *516:A 44.5629 
*END

*D_NET *211 0.0177596
*CONN
*I *477:A I *D sg13g2_inv_1
*I *331:A I *D sg13g2_inv_1
*I *482:A I *D sg13g2_inv_1
*I *483:A I *D sg13g2_inv_1
*I *481:A I *D sg13g2_inv_1
*I *480:A I *D sg13g2_inv_1
*I *479:A I *D sg13g2_inv_1
*I *478:A I *D sg13g2_inv_1
*I *518:X O *D sg13g2_buf_1
*CAP
1 *477:A 0
2 *331:A 0
3 *482:A 0
4 *483:A 5.00906e-05
5 *481:A 7.15524e-05
6 *480:A 6.09993e-05
7 *479:A 0.000125709
8 *478:A 0
9 *518:X 0.000101458
10 *211:131 0.00076668
11 *211:112 0.000863361
12 *211:98 0.00106044
13 *211:82 0.00108565
14 *211:74 0.000691267
15 *211:64 0.000712646
16 *211:62 0.000841767
17 *211:49 0.000969384
18 *211:36 0.000278442
19 *211:23 0.000351542
20 *211:14 0.00105448
21 *211:8 0.00109148
22 *332:A *211:14 0.000307084
23 *348:B *211:98 0.000208063
24 *349:B1 *211:98 0
25 *349:A2 *211:98 0.000199292
26 *389:B1 *211:62 0
27 *406:B1 *211:131 0.000112426
28 *410:C *211:131 0
29 *410:D *211:131 0
30 *411:C *211:74 0.000209033
31 *411:C *211:112 0.000129421
32 *422:A1 *211:36 0
33 *423:B1 *211:131 0
34 *429:B *211:131 0
35 *430:B2 *211:131 4.77537e-05
36 *430:C1 *211:131 1.54118e-05
37 *430:B1 *211:131 0.000176235
38 *431:A *211:62 0.00118578
39 *431:D *211:62 0
40 *486:CLK *211:14 0
41 *487:RESET_B *211:14 0
42 *488:RESET_B *211:14 0.00030715
43 *489:RESET_B *211:98 0
44 *490:D *483:A 8.01116e-05
45 *490:D *211:98 0
46 *511:A *211:14 0
47 *512:A *211:62 0.000984244
48 *515:A *211:98 0
49 *516:A *211:62 0
50 *524:A *211:98 0.000181608
51 *4:17 *211:14 0
52 *27:12 *211:82 0.000125014
53 *31:33 *211:131 0
54 *31:37 *211:131 0
55 *32:12 *211:8 0
56 *34:10 *211:8 0
57 *35:69 *211:82 0.000125261
58 *41:63 *211:74 0
59 *44:10 *211:14 0
60 *57:10 *479:A 4.77395e-05
61 *82:12 *211:62 0
62 *101:14 *211:74 0.000112426
63 *101:14 *211:112 0
64 *102:12 *211:62 0
65 *112:18 *211:131 0
66 *139:8 *211:8 0
67 *148:50 *211:62 0
68 *149:8 *211:74 0.000126441
69 *189:18 *211:82 0
70 *192:8 *211:74 0
71 *196:35 *211:98 0
72 *196:39 *211:74 0
73 *196:96 *211:131 0.000287867
74 *198:27 *211:131 0
75 *199:28 *479:A 0.000112289
76 *199:28 *211:14 7.9712e-05
77 *200:57 *479:A 0.000181192
78 *200:57 *211:36 0.000476947
79 *200:57 *211:49 0.000159096
80 *205:27 *211:62 0.000638962
81 *205:27 *211:74 0.000531963
82 *207:16 *211:36 0
83 *207:62 *481:A 7.9947e-05
84 *207:62 *211:62 0.000193615
85 *207:91 *211:82 8.01773e-05
86 *207:91 *211:98 8.03692e-05
*RES
1 *518:X *211:8 41.0918 
2 *211:8 *211:14 29.2877 
3 *211:14 *478:A 20 
4 *211:14 *211:23 20.7519 
5 *211:23 *479:A 41.5965 
6 *211:23 *211:36 2.3278 
7 *211:36 *480:A 40.7519 
8 *211:36 *211:49 20.8446 
9 *211:49 *481:A 20.7519 
10 *211:49 *211:62 30.9901 
11 *211:62 *211:64 20 
12 *211:64 *211:74 46.3036 
13 *211:74 *211:82 41.133 
14 *211:82 *211:98 49.7026 
15 *211:98 *483:A 20.5356 
16 *211:82 *482:A 20 
17 *211:64 *211:112 0.9682 
18 *211:112 *331:A 20 
19 *211:112 *211:131 47.8692 
20 *211:131 *477:A 20 
*END

*D_NET *212 0.000557498
*CONN
*I *360:A I *D sg13g2_xnor2_1
*I *519:X O *D sg13g2_dlygate4sd3_1
*CAP
1 *360:A 3.61168e-05
2 *519:X 0.000172344
3 *212:8 0.000208461
4 sine_out[1] *212:8 0
5 *360:B *360:A 1.54008e-05
6 *174:36 *212:8 0.000125175
7 *192:77 *212:8 0
*RES
1 *519:X *212:8 41.8334 
2 *212:8 *360:A 40.3193 
*END

*D_NET *213 0.00133644
*CONN
*I *536:A I *D sg13g2_buf_1
*I *464:Y O *D sg13g2_nand2_1
*CAP
1 *536:A 0.000304883
2 *464:Y 0.000304883
3 *536:A *538:A 0
4 sine_out[12] *536:A 0
5 *459:B1 *536:A 0.000209856
6 *461:A2 *536:A 0
7 *174:61 *536:A 0.000307095
8 *184:12 *536:A 0.000209725
*RES
1 *464:Y *536:A 43.5638 
*END

*D_NET *214 0.00115469
*CONN
*I *537:A I *D sg13g2_buf_1
*I *466:Y O *D sg13g2_nor2_1
*CAP
1 *537:A 0
2 *466:Y 0.000435756
3 *214:10 0.000435756
4 *466:B *214:10 4.76216e-05
5 *533:A *214:10 0
6 *188:14 *214:10 0.000235556
7 *193:50 *214:10 0
*RES
1 *466:Y *214:10 45.3972 
2 *214:10 *537:A 40 
*END

*D_NET *215 0.00163553
*CONN
*I *538:A I *D sg13g2_buf_1
*I *468:Y O *D sg13g2_a21oi_1
*CAP
1 *538:A 0.000474072
2 *468:Y 8.92665e-05
3 *215:8 0.000563339
4 sine_out[12] *538:A 0
5 *459:A1 *538:A 4.78359e-05
6 *459:A1 *215:8 0.000106807
7 *459:A2 *538:A 0
8 *459:B1 *538:A 0.000209856
9 *460:A1 *538:A 0
10 *461:A2 *538:A 0
11 *532:A *538:A 0
12 *536:A *538:A 0
13 *125:26 *538:A 6.97909e-05
14 *194:25 *215:8 0
15 *198:70 *215:8 7.4563e-05
16 *198:74 *538:A 0
*RES
1 *468:Y *215:8 41.0918 
2 *215:8 *538:A 45.0161 
*END

*D_NET *216 0.000945011
*CONN
*I *539:A I *D sg13g2_buf_1
*I *469:Y O *D sg13g2_nor2_1
*CAP
1 *539:A 5.30759e-05
2 *469:Y 0.000224999
3 *216:10 0.000278075
4 *530:A *539:A 0
5 *533:A *216:10 0
6 *11:12 *539:A 0
7 *22:10 *539:A 0
8 *188:14 *539:A 4.77425e-05
9 *188:14 *216:10 0.000341119
10 *193:50 *216:10 0
11 *196:130 *216:10 0
*RES
1 *469:Y *216:10 42.8016 
2 *216:10 *539:A 40.5356 
*END

*D_NET *217 0.00337538
*CONN
*I *540:A I *D sg13g2_buf_1
*I *470:Y O *D sg13g2_nand2_1
*CAP
1 *540:A 0.000189065
2 *470:Y 8.87336e-05
3 *217:20 0.000678667
4 *217:8 0.000578335
5 *457:C *540:A 0
6 *472:A1 *217:20 0.000274491
7 *472:A2 *540:A 0.000208878
8 *472:A2 *217:20 0
9 *474:B *217:20 4.77425e-05
10 *501:A *217:8 0.00022762
11 *506:A *217:8 0.000177499
12 *39:20 *217:8 5.15366e-05
13 *70:29 *217:8 0
14 *112:18 *217:20 0.000209637
15 *151:31 *217:20 0.000177306
16 *183:8 *217:20 0.000126358
17 *189:69 *217:20 0
18 *194:25 *540:A 0.000339508
*RES
1 *470:Y *217:8 41.339 
2 *217:8 *217:20 45.3251 
3 *217:20 *540:A 42.266 
*END
